# LAMMPS data file

1800 atoms
2700 bonds
5400 angles
10800 dihedrals

2 atom types
1 bond types
2 angle types
2 dihedral types

0.000000000      74.824594890     xlo xhi
0.000000000      64.800000000     ylo yhi

Masses

1 10.811000000     # B
2 14.006700000     # N

Atoms

1 1 1 0.000000000      1.247076581      0.000000000      0.000000000      # B
2 1 2 0.000000000      0.000000000      0.720000000      0.000000000      # N
3 1 1 0.000000000      0.000000000      2.160000000      0.000000000      # B
4 1 2 0.000000000      1.247076581      2.880000000      0.000000000      # N
5 1 1 0.000000000      3.741229744      0.000000000      0.000000000      # B
6 1 2 0.000000000      2.494153163      0.720000000      0.000000000      # N
7 1 1 0.000000000      2.494153163      2.160000000      0.000000000      # B
8 1 2 0.000000000      3.741229744      2.880000000      0.000000000      # N
9 1 1 0.000000000      6.235382907      0.000000000      0.000000000      # B
10 1 2 0.000000000      4.988306326      0.720000000      0.000000000      # N
11 1 1 0.000000000      4.988306326      2.160000000      0.000000000      # B
12 1 2 0.000000000      6.235382907      2.880000000      0.000000000      # N
13 1 1 0.000000000      8.729536070      0.000000000      0.000000000      # B
14 1 2 0.000000000      7.482459489      0.720000000      0.000000000      # N
15 1 1 0.000000000      7.482459489      2.160000000      0.000000000      # B
16 1 2 0.000000000      8.729536070      2.880000000      0.000000000      # N
17 1 1 0.000000000      11.223689233     0.000000000      0.000000000      # B
18 1 2 0.000000000      9.976612652      0.720000000      0.000000000      # N
19 1 1 0.000000000      9.976612652      2.160000000      0.000000000      # B
20 1 2 0.000000000      11.223689233     2.880000000      0.000000000      # N
21 1 1 0.000000000      13.717842396     0.000000000      0.000000000      # B
22 1 2 0.000000000      12.470765815     0.720000000      0.000000000      # N
23 1 1 0.000000000      12.470765815     2.160000000      0.000000000      # B
24 1 2 0.000000000      13.717842396     2.880000000      0.000000000      # N
25 1 1 0.000000000      16.211995559     0.000000000      0.000000000      # B
26 1 2 0.000000000      14.964918978     0.720000000      0.000000000      # N
27 1 1 0.000000000      14.964918978     2.160000000      0.000000000      # B
28 1 2 0.000000000      16.211995559     2.880000000      0.000000000      # N
29 1 1 0.000000000      18.706148722     0.000000000      0.000000000      # B
30 1 2 0.000000000      17.459072141     0.720000000      0.000000000      # N
31 1 1 0.000000000      17.459072141     2.160000000      0.000000000      # B
32 1 2 0.000000000      18.706148722     2.880000000      0.000000000      # N
33 1 1 0.000000000      21.200301885     0.000000000      0.000000000      # B
34 1 2 0.000000000      19.953225304     0.720000000      0.000000000      # N
35 1 1 0.000000000      19.953225304     2.160000000      0.000000000      # B
36 1 2 0.000000000      21.200301885     2.880000000      0.000000000      # N
37 1 1 0.000000000      23.694455048     0.000000000      0.000000000      # B
38 1 2 0.000000000      22.447378467     0.720000000      0.000000000      # N
39 1 1 0.000000000      22.447378467     2.160000000      0.000000000      # B
40 1 2 0.000000000      23.694455048     2.880000000      0.000000000      # N
41 1 1 0.000000000      26.188608211     0.000000000      0.000000000      # B
42 1 2 0.000000000      24.941531630     0.720000000      0.000000000      # N
43 1 1 0.000000000      24.941531630     2.160000000      0.000000000      # B
44 1 2 0.000000000      26.188608211     2.880000000      0.000000000      # N
45 1 1 0.000000000      28.682761374     0.000000000      0.000000000      # B
46 1 2 0.000000000      27.435684793     0.720000000      0.000000000      # N
47 1 1 0.000000000      27.435684793     2.160000000      0.000000000      # B
48 1 2 0.000000000      28.682761374     2.880000000      0.000000000      # N
49 1 1 0.000000000      31.176914537     0.000000000      0.000000000      # B
50 1 2 0.000000000      29.929837956     0.720000000      0.000000000      # N
51 1 1 0.000000000      29.929837956     2.160000000      0.000000000      # B
52 1 2 0.000000000      31.176914537     2.880000000      0.000000000      # N
53 1 1 0.000000000      33.671067700     0.000000000      0.000000000      # B
54 1 2 0.000000000      32.423991119     0.720000000      0.000000000      # N
55 1 1 0.000000000      32.423991119     2.160000000      0.000000000      # B
56 1 2 0.000000000      33.671067700     2.880000000      0.000000000      # N
57 1 1 0.000000000      36.165220863     0.000000000      0.000000000      # B
58 1 2 0.000000000      34.918144282     0.720000000      0.000000000      # N
59 1 1 0.000000000      34.918144282     2.160000000      0.000000000      # B
60 1 2 0.000000000      36.165220863     2.880000000      0.000000000      # N
61 1 1 0.000000000      38.659374026     0.000000000      0.000000000      # B
62 1 2 0.000000000      37.412297445     0.720000000      0.000000000      # N
63 1 1 0.000000000      37.412297445     2.160000000      0.000000000      # B
64 1 2 0.000000000      38.659374026     2.880000000      0.000000000      # N
65 1 1 0.000000000      41.153527189     0.000000000      0.000000000      # B
66 1 2 0.000000000      39.906450608     0.720000000      0.000000000      # N
67 1 1 0.000000000      39.906450608     2.160000000      0.000000000      # B
68 1 2 0.000000000      41.153527189     2.880000000      0.000000000      # N
69 1 1 0.000000000      43.647680352     0.000000000      0.000000000      # B
70 1 2 0.000000000      42.400603771     0.720000000      0.000000000      # N
71 1 1 0.000000000      42.400603771     2.160000000      0.000000000      # B
72 1 2 0.000000000      43.647680352     2.880000000      0.000000000      # N
73 1 1 0.000000000      46.141833515     0.000000000      0.000000000      # B
74 1 2 0.000000000      44.894756934     0.720000000      0.000000000      # N
75 1 1 0.000000000      44.894756934     2.160000000      0.000000000      # B
76 1 2 0.000000000      46.141833515     2.880000000      0.000000000      # N
77 1 1 0.000000000      48.635986678     0.000000000      0.000000000      # B
78 1 2 0.000000000      47.388910097     0.720000000      0.000000000      # N
79 1 1 0.000000000      47.388910097     2.160000000      0.000000000      # B
80 1 2 0.000000000      48.635986678     2.880000000      0.000000000      # N
81 1 1 0.000000000      51.130139841     0.000000000      0.000000000      # B
82 1 2 0.000000000      49.883063260     0.720000000      0.000000000      # N
83 1 1 0.000000000      49.883063260     2.160000000      0.000000000      # B
84 1 2 0.000000000      51.130139841     2.880000000      0.000000000      # N
85 1 1 0.000000000      53.624293004     0.000000000      0.000000000      # B
86 1 2 0.000000000      52.377216423     0.720000000      0.000000000      # N
87 1 1 0.000000000      52.377216423     2.160000000      0.000000000      # B
88 1 2 0.000000000      53.624293004     2.880000000      0.000000000      # N
89 1 1 0.000000000      56.118446167     0.000000000      0.000000000      # B
90 1 2 0.000000000      54.871369586     0.720000000      0.000000000      # N
91 1 1 0.000000000      54.871369586     2.160000000      0.000000000      # B
92 1 2 0.000000000      56.118446167     2.880000000      0.000000000      # N
93 1 1 0.000000000      58.612599330     0.000000000      0.000000000      # B
94 1 2 0.000000000      57.365522749     0.720000000      0.000000000      # N
95 1 1 0.000000000      57.365522749     2.160000000      0.000000000      # B
96 1 2 0.000000000      58.612599330     2.880000000      0.000000000      # N
97 1 1 0.000000000      61.106752493     0.000000000      0.000000000      # B
98 1 2 0.000000000      59.859675912     0.720000000      0.000000000      # N
99 1 1 0.000000000      59.859675912     2.160000000      0.000000000      # B
100 1 2 0.000000000      61.106752493     2.880000000      0.000000000      # N
101 1 1 0.000000000      63.600905656     0.000000000      0.000000000      # B
102 1 2 0.000000000      62.353829075     0.720000000      0.000000000      # N
103 1 1 0.000000000      62.353829075     2.160000000      0.000000000      # B
104 1 2 0.000000000      63.600905656     2.880000000      0.000000000      # N
105 1 1 0.000000000      66.095058819     0.000000000      0.000000000      # B
106 1 2 0.000000000      64.847982238     0.720000000      0.000000000      # N
107 1 1 0.000000000      64.847982238     2.160000000      0.000000000      # B
108 1 2 0.000000000      66.095058819     2.880000000      0.000000000      # N
109 1 1 0.000000000      68.589211982     0.000000000      0.000000000      # B
110 1 2 0.000000000      67.342135401     0.720000000      0.000000000      # N
111 1 1 0.000000000      67.342135401     2.160000000      0.000000000      # B
112 1 2 0.000000000      68.589211982     2.880000000      0.000000000      # N
113 1 1 0.000000000      71.083365145     0.000000000      0.000000000      # B
114 1 2 0.000000000      69.836288564     0.720000000      0.000000000      # N
115 1 1 0.000000000      69.836288564     2.160000000      0.000000000      # B
116 1 2 0.000000000      71.083365145     2.880000000      0.000000000      # N
117 1 1 0.000000000      73.577518308     0.000000000      0.000000000      # B
118 1 2 0.000000000      72.330441727     0.720000000      0.000000000      # N
119 1 1 0.000000000      72.330441727     2.160000000      0.000000000      # B
120 1 2 0.000000000      73.577518308     2.880000000      0.000000000      # N
121 1 1 0.000000000      1.247076581      4.320000000      0.000000000      # B
122 1 2 0.000000000      0.000000000      5.040000000      0.000000000      # N
123 1 1 0.000000000      0.000000000      6.480000000      0.000000000      # B
124 1 2 0.000000000      1.247076581      7.200000000      0.000000000      # N
125 1 1 0.000000000      3.741229744      4.320000000      0.000000000      # B
126 1 2 0.000000000      2.494153163      5.040000000      0.000000000      # N
127 1 1 0.000000000      2.494153163      6.480000000      0.000000000      # B
128 1 2 0.000000000      3.741229744      7.200000000      0.000000000      # N
129 1 1 0.000000000      6.235382907      4.320000000      0.000000000      # B
130 1 2 0.000000000      4.988306326      5.040000000      0.000000000      # N
131 1 1 0.000000000      4.988306326      6.480000000      0.000000000      # B
132 1 2 0.000000000      6.235382907      7.200000000      0.000000000      # N
133 1 1 0.000000000      8.729536070      4.320000000      0.000000000      # B
134 1 2 0.000000000      7.482459489      5.040000000      0.000000000      # N
135 1 1 0.000000000      7.482459489      6.480000000      0.000000000      # B
136 1 2 0.000000000      8.729536070      7.200000000      0.000000000      # N
137 1 1 0.000000000      11.223689233     4.320000000      0.000000000      # B
138 1 2 0.000000000      9.976612652      5.040000000      0.000000000      # N
139 1 1 0.000000000      9.976612652      6.480000000      0.000000000      # B
140 1 2 0.000000000      11.223689233     7.200000000      0.000000000      # N
141 1 1 0.000000000      13.717842396     4.320000000      0.000000000      # B
142 1 2 0.000000000      12.470765815     5.040000000      0.000000000      # N
143 1 1 0.000000000      12.470765815     6.480000000      0.000000000      # B
144 1 2 0.000000000      13.717842396     7.200000000      0.000000000      # N
145 1 1 0.000000000      16.211995559     4.320000000      0.000000000      # B
146 1 2 0.000000000      14.964918978     5.040000000      0.000000000      # N
147 1 1 0.000000000      14.964918978     6.480000000      0.000000000      # B
148 1 2 0.000000000      16.211995559     7.200000000      0.000000000      # N
149 1 1 0.000000000      18.706148722     4.320000000      0.000000000      # B
150 1 2 0.000000000      17.459072141     5.040000000      0.000000000      # N
151 1 1 0.000000000      17.459072141     6.480000000      0.000000000      # B
152 1 2 0.000000000      18.706148722     7.200000000      0.000000000      # N
153 1 1 0.000000000      21.200301885     4.320000000      0.000000000      # B
154 1 2 0.000000000      19.953225304     5.040000000      0.000000000      # N
155 1 1 0.000000000      19.953225304     6.480000000      0.000000000      # B
156 1 2 0.000000000      21.200301885     7.200000000      0.000000000      # N
157 1 1 0.000000000      23.694455048     4.320000000      0.000000000      # B
158 1 2 0.000000000      22.447378467     5.040000000      0.000000000      # N
159 1 1 0.000000000      22.447378467     6.480000000      0.000000000      # B
160 1 2 0.000000000      23.694455048     7.200000000      0.000000000      # N
161 1 1 0.000000000      26.188608211     4.320000000      0.000000000      # B
162 1 2 0.000000000      24.941531630     5.040000000      0.000000000      # N
163 1 1 0.000000000      24.941531630     6.480000000      0.000000000      # B
164 1 2 0.000000000      26.188608211     7.200000000      0.000000000      # N
165 1 1 0.000000000      28.682761374     4.320000000      0.000000000      # B
166 1 2 0.000000000      27.435684793     5.040000000      0.000000000      # N
167 1 1 0.000000000      27.435684793     6.480000000      0.000000000      # B
168 1 2 0.000000000      28.682761374     7.200000000      0.000000000      # N
169 1 1 0.000000000      31.176914537     4.320000000      0.000000000      # B
170 1 2 0.000000000      29.929837956     5.040000000      0.000000000      # N
171 1 1 0.000000000      29.929837956     6.480000000      0.000000000      # B
172 1 2 0.000000000      31.176914537     7.200000000      0.000000000      # N
173 1 1 0.000000000      33.671067700     4.320000000      0.000000000      # B
174 1 2 0.000000000      32.423991119     5.040000000      0.000000000      # N
175 1 1 0.000000000      32.423991119     6.480000000      0.000000000      # B
176 1 2 0.000000000      33.671067700     7.200000000      0.000000000      # N
177 1 1 0.000000000      36.165220863     4.320000000      0.000000000      # B
178 1 2 0.000000000      34.918144282     5.040000000      0.000000000      # N
179 1 1 0.000000000      34.918144282     6.480000000      0.000000000      # B
180 1 2 0.000000000      36.165220863     7.200000000      0.000000000      # N
181 1 1 0.000000000      38.659374026     4.320000000      0.000000000      # B
182 1 2 0.000000000      37.412297445     5.040000000      0.000000000      # N
183 1 1 0.000000000      37.412297445     6.480000000      0.000000000      # B
184 1 2 0.000000000      38.659374026     7.200000000      0.000000000      # N
185 1 1 0.000000000      41.153527189     4.320000000      0.000000000      # B
186 1 2 0.000000000      39.906450608     5.040000000      0.000000000      # N
187 1 1 0.000000000      39.906450608     6.480000000      0.000000000      # B
188 1 2 0.000000000      41.153527189     7.200000000      0.000000000      # N
189 1 1 0.000000000      43.647680352     4.320000000      0.000000000      # B
190 1 2 0.000000000      42.400603771     5.040000000      0.000000000      # N
191 1 1 0.000000000      42.400603771     6.480000000      0.000000000      # B
192 1 2 0.000000000      43.647680352     7.200000000      0.000000000      # N
193 1 1 0.000000000      46.141833515     4.320000000      0.000000000      # B
194 1 2 0.000000000      44.894756934     5.040000000      0.000000000      # N
195 1 1 0.000000000      44.894756934     6.480000000      0.000000000      # B
196 1 2 0.000000000      46.141833515     7.200000000      0.000000000      # N
197 1 1 0.000000000      48.635986678     4.320000000      0.000000000      # B
198 1 2 0.000000000      47.388910097     5.040000000      0.000000000      # N
199 1 1 0.000000000      47.388910097     6.480000000      0.000000000      # B
200 1 2 0.000000000      48.635986678     7.200000000      0.000000000      # N
201 1 1 0.000000000      51.130139841     4.320000000      0.000000000      # B
202 1 2 0.000000000      49.883063260     5.040000000      0.000000000      # N
203 1 1 0.000000000      49.883063260     6.480000000      0.000000000      # B
204 1 2 0.000000000      51.130139841     7.200000000      0.000000000      # N
205 1 1 0.000000000      53.624293004     4.320000000      0.000000000      # B
206 1 2 0.000000000      52.377216423     5.040000000      0.000000000      # N
207 1 1 0.000000000      52.377216423     6.480000000      0.000000000      # B
208 1 2 0.000000000      53.624293004     7.200000000      0.000000000      # N
209 1 1 0.000000000      56.118446167     4.320000000      0.000000000      # B
210 1 2 0.000000000      54.871369586     5.040000000      0.000000000      # N
211 1 1 0.000000000      54.871369586     6.480000000      0.000000000      # B
212 1 2 0.000000000      56.118446167     7.200000000      0.000000000      # N
213 1 1 0.000000000      58.612599330     4.320000000      0.000000000      # B
214 1 2 0.000000000      57.365522749     5.040000000      0.000000000      # N
215 1 1 0.000000000      57.365522749     6.480000000      0.000000000      # B
216 1 2 0.000000000      58.612599330     7.200000000      0.000000000      # N
217 1 1 0.000000000      61.106752493     4.320000000      0.000000000      # B
218 1 2 0.000000000      59.859675912     5.040000000      0.000000000      # N
219 1 1 0.000000000      59.859675912     6.480000000      0.000000000      # B
220 1 2 0.000000000      61.106752493     7.200000000      0.000000000      # N
221 1 1 0.000000000      63.600905656     4.320000000      0.000000000      # B
222 1 2 0.000000000      62.353829075     5.040000000      0.000000000      # N
223 1 1 0.000000000      62.353829075     6.480000000      0.000000000      # B
224 1 2 0.000000000      63.600905656     7.200000000      0.000000000      # N
225 1 1 0.000000000      66.095058819     4.320000000      0.000000000      # B
226 1 2 0.000000000      64.847982238     5.040000000      0.000000000      # N
227 1 1 0.000000000      64.847982238     6.480000000      0.000000000      # B
228 1 2 0.000000000      66.095058819     7.200000000      0.000000000      # N
229 1 1 0.000000000      68.589211982     4.320000000      0.000000000      # B
230 1 2 0.000000000      67.342135401     5.040000000      0.000000000      # N
231 1 1 0.000000000      67.342135401     6.480000000      0.000000000      # B
232 1 2 0.000000000      68.589211982     7.200000000      0.000000000      # N
233 1 1 0.000000000      71.083365145     4.320000000      0.000000000      # B
234 1 2 0.000000000      69.836288564     5.040000000      0.000000000      # N
235 1 1 0.000000000      69.836288564     6.480000000      0.000000000      # B
236 1 2 0.000000000      71.083365145     7.200000000      0.000000000      # N
237 1 1 0.000000000      73.577518308     4.320000000      0.000000000      # B
238 1 2 0.000000000      72.330441727     5.040000000      0.000000000      # N
239 1 1 0.000000000      72.330441727     6.480000000      0.000000000      # B
240 1 2 0.000000000      73.577518308     7.200000000      0.000000000      # N
241 1 1 0.000000000      1.247076581      8.640000000      0.000000000      # B
242 1 2 0.000000000      0.000000000      9.360000000      0.000000000      # N
243 1 1 0.000000000      0.000000000      10.800000000     0.000000000      # B
244 1 2 0.000000000      1.247076581      11.520000000     0.000000000      # N
245 1 1 0.000000000      3.741229744      8.640000000      0.000000000      # B
246 1 2 0.000000000      2.494153163      9.360000000      0.000000000      # N
247 1 1 0.000000000      2.494153163      10.800000000     0.000000000      # B
248 1 2 0.000000000      3.741229744      11.520000000     0.000000000      # N
249 1 1 0.000000000      6.235382907      8.640000000      0.000000000      # B
250 1 2 0.000000000      4.988306326      9.360000000      0.000000000      # N
251 1 1 0.000000000      4.988306326      10.800000000     0.000000000      # B
252 1 2 0.000000000      6.235382907      11.520000000     0.000000000      # N
253 1 1 0.000000000      8.729536070      8.640000000      0.000000000      # B
254 1 2 0.000000000      7.482459489      9.360000000      0.000000000      # N
255 1 1 0.000000000      7.482459489      10.800000000     0.000000000      # B
256 1 2 0.000000000      8.729536070      11.520000000     0.000000000      # N
257 1 1 0.000000000      11.223689233     8.640000000      0.000000000      # B
258 1 2 0.000000000      9.976612652      9.360000000      0.000000000      # N
259 1 1 0.000000000      9.976612652      10.800000000     0.000000000      # B
260 1 2 0.000000000      11.223689233     11.520000000     0.000000000      # N
261 1 1 0.000000000      13.717842396     8.640000000      0.000000000      # B
262 1 2 0.000000000      12.470765815     9.360000000      0.000000000      # N
263 1 1 0.000000000      12.470765815     10.800000000     0.000000000      # B
264 1 2 0.000000000      13.717842396     11.520000000     0.000000000      # N
265 1 1 0.000000000      16.211995559     8.640000000      0.000000000      # B
266 1 2 0.000000000      14.964918978     9.360000000      0.000000000      # N
267 1 1 0.000000000      14.964918978     10.800000000     0.000000000      # B
268 1 2 0.000000000      16.211995559     11.520000000     0.000000000      # N
269 1 1 0.000000000      18.706148722     8.640000000      0.000000000      # B
270 1 2 0.000000000      17.459072141     9.360000000      0.000000000      # N
271 1 1 0.000000000      17.459072141     10.800000000     0.000000000      # B
272 1 2 0.000000000      18.706148722     11.520000000     0.000000000      # N
273 1 1 0.000000000      21.200301885     8.640000000      0.000000000      # B
274 1 2 0.000000000      19.953225304     9.360000000      0.000000000      # N
275 1 1 0.000000000      19.953225304     10.800000000     0.000000000      # B
276 1 2 0.000000000      21.200301885     11.520000000     0.000000000      # N
277 1 1 0.000000000      23.694455048     8.640000000      0.000000000      # B
278 1 2 0.000000000      22.447378467     9.360000000      0.000000000      # N
279 1 1 0.000000000      22.447378467     10.800000000     0.000000000      # B
280 1 2 0.000000000      23.694455048     11.520000000     0.000000000      # N
281 1 1 0.000000000      26.188608211     8.640000000      0.000000000      # B
282 1 2 0.000000000      24.941531630     9.360000000      0.000000000      # N
283 1 1 0.000000000      24.941531630     10.800000000     0.000000000      # B
284 1 2 0.000000000      26.188608211     11.520000000     0.000000000      # N
285 1 1 0.000000000      28.682761374     8.640000000      0.000000000      # B
286 1 2 0.000000000      27.435684793     9.360000000      0.000000000      # N
287 1 1 0.000000000      27.435684793     10.800000000     0.000000000      # B
288 1 2 0.000000000      28.682761374     11.520000000     0.000000000      # N
289 1 1 0.000000000      31.176914537     8.640000000      0.000000000      # B
290 1 2 0.000000000      29.929837956     9.360000000      0.000000000      # N
291 1 1 0.000000000      29.929837956     10.800000000     0.000000000      # B
292 1 2 0.000000000      31.176914537     11.520000000     0.000000000      # N
293 1 1 0.000000000      33.671067700     8.640000000      0.000000000      # B
294 1 2 0.000000000      32.423991119     9.360000000      0.000000000      # N
295 1 1 0.000000000      32.423991119     10.800000000     0.000000000      # B
296 1 2 0.000000000      33.671067700     11.520000000     0.000000000      # N
297 1 1 0.000000000      36.165220863     8.640000000      0.000000000      # B
298 1 2 0.000000000      34.918144282     9.360000000      0.000000000      # N
299 1 1 0.000000000      34.918144282     10.800000000     0.000000000      # B
300 1 2 0.000000000      36.165220863     11.520000000     0.000000000      # N
301 1 1 0.000000000      38.659374026     8.640000000      0.000000000      # B
302 1 2 0.000000000      37.412297445     9.360000000      0.000000000      # N
303 1 1 0.000000000      37.412297445     10.800000000     0.000000000      # B
304 1 2 0.000000000      38.659374026     11.520000000     0.000000000      # N
305 1 1 0.000000000      41.153527189     8.640000000      0.000000000      # B
306 1 2 0.000000000      39.906450608     9.360000000      0.000000000      # N
307 1 1 0.000000000      39.906450608     10.800000000     0.000000000      # B
308 1 2 0.000000000      41.153527189     11.520000000     0.000000000      # N
309 1 1 0.000000000      43.647680352     8.640000000      0.000000000      # B
310 1 2 0.000000000      42.400603771     9.360000000      0.000000000      # N
311 1 1 0.000000000      42.400603771     10.800000000     0.000000000      # B
312 1 2 0.000000000      43.647680352     11.520000000     0.000000000      # N
313 1 1 0.000000000      46.141833515     8.640000000      0.000000000      # B
314 1 2 0.000000000      44.894756934     9.360000000      0.000000000      # N
315 1 1 0.000000000      44.894756934     10.800000000     0.000000000      # B
316 1 2 0.000000000      46.141833515     11.520000000     0.000000000      # N
317 1 1 0.000000000      48.635986678     8.640000000      0.000000000      # B
318 1 2 0.000000000      47.388910097     9.360000000      0.000000000      # N
319 1 1 0.000000000      47.388910097     10.800000000     0.000000000      # B
320 1 2 0.000000000      48.635986678     11.520000000     0.000000000      # N
321 1 1 0.000000000      51.130139841     8.640000000      0.000000000      # B
322 1 2 0.000000000      49.883063260     9.360000000      0.000000000      # N
323 1 1 0.000000000      49.883063260     10.800000000     0.000000000      # B
324 1 2 0.000000000      51.130139841     11.520000000     0.000000000      # N
325 1 1 0.000000000      53.624293004     8.640000000      0.000000000      # B
326 1 2 0.000000000      52.377216423     9.360000000      0.000000000      # N
327 1 1 0.000000000      52.377216423     10.800000000     0.000000000      # B
328 1 2 0.000000000      53.624293004     11.520000000     0.000000000      # N
329 1 1 0.000000000      56.118446167     8.640000000      0.000000000      # B
330 1 2 0.000000000      54.871369586     9.360000000      0.000000000      # N
331 1 1 0.000000000      54.871369586     10.800000000     0.000000000      # B
332 1 2 0.000000000      56.118446167     11.520000000     0.000000000      # N
333 1 1 0.000000000      58.612599330     8.640000000      0.000000000      # B
334 1 2 0.000000000      57.365522749     9.360000000      0.000000000      # N
335 1 1 0.000000000      57.365522749     10.800000000     0.000000000      # B
336 1 2 0.000000000      58.612599330     11.520000000     0.000000000      # N
337 1 1 0.000000000      61.106752493     8.640000000      0.000000000      # B
338 1 2 0.000000000      59.859675912     9.360000000      0.000000000      # N
339 1 1 0.000000000      59.859675912     10.800000000     0.000000000      # B
340 1 2 0.000000000      61.106752493     11.520000000     0.000000000      # N
341 1 1 0.000000000      63.600905656     8.640000000      0.000000000      # B
342 1 2 0.000000000      62.353829075     9.360000000      0.000000000      # N
343 1 1 0.000000000      62.353829075     10.800000000     0.000000000      # B
344 1 2 0.000000000      63.600905656     11.520000000     0.000000000      # N
345 1 1 0.000000000      66.095058819     8.640000000      0.000000000      # B
346 1 2 0.000000000      64.847982238     9.360000000      0.000000000      # N
347 1 1 0.000000000      64.847982238     10.800000000     0.000000000      # B
348 1 2 0.000000000      66.095058819     11.520000000     0.000000000      # N
349 1 1 0.000000000      68.589211982     8.640000000      0.000000000      # B
350 1 2 0.000000000      67.342135401     9.360000000      0.000000000      # N
351 1 1 0.000000000      67.342135401     10.800000000     0.000000000      # B
352 1 2 0.000000000      68.589211982     11.520000000     0.000000000      # N
353 1 1 0.000000000      71.083365145     8.640000000      0.000000000      # B
354 1 2 0.000000000      69.836288564     9.360000000      0.000000000      # N
355 1 1 0.000000000      69.836288564     10.800000000     0.000000000      # B
356 1 2 0.000000000      71.083365145     11.520000000     0.000000000      # N
357 1 1 0.000000000      73.577518308     8.640000000      0.000000000      # B
358 1 2 0.000000000      72.330441727     9.360000000      0.000000000      # N
359 1 1 0.000000000      72.330441727     10.800000000     0.000000000      # B
360 1 2 0.000000000      73.577518308     11.520000000     0.000000000      # N
361 1 1 0.000000000      1.247076581      12.960000000     0.000000000      # B
362 1 2 0.000000000      0.000000000      13.680000000     0.000000000      # N
363 1 1 0.000000000      0.000000000      15.120000000     0.000000000      # B
364 1 2 0.000000000      1.247076581      15.840000000     0.000000000      # N
365 1 1 0.000000000      3.741229744      12.960000000     0.000000000      # B
366 1 2 0.000000000      2.494153163      13.680000000     0.000000000      # N
367 1 1 0.000000000      2.494153163      15.120000000     0.000000000      # B
368 1 2 0.000000000      3.741229744      15.840000000     0.000000000      # N
369 1 1 0.000000000      6.235382907      12.960000000     0.000000000      # B
370 1 2 0.000000000      4.988306326      13.680000000     0.000000000      # N
371 1 1 0.000000000      4.988306326      15.120000000     0.000000000      # B
372 1 2 0.000000000      6.235382907      15.840000000     0.000000000      # N
373 1 1 0.000000000      8.729536070      12.960000000     0.000000000      # B
374 1 2 0.000000000      7.482459489      13.680000000     0.000000000      # N
375 1 1 0.000000000      7.482459489      15.120000000     0.000000000      # B
376 1 2 0.000000000      8.729536070      15.840000000     0.000000000      # N
377 1 1 0.000000000      11.223689233     12.960000000     0.000000000      # B
378 1 2 0.000000000      9.976612652      13.680000000     0.000000000      # N
379 1 1 0.000000000      9.976612652      15.120000000     0.000000000      # B
380 1 2 0.000000000      11.223689233     15.840000000     0.000000000      # N
381 1 1 0.000000000      13.717842396     12.960000000     0.000000000      # B
382 1 2 0.000000000      12.470765815     13.680000000     0.000000000      # N
383 1 1 0.000000000      12.470765815     15.120000000     0.000000000      # B
384 1 2 0.000000000      13.717842396     15.840000000     0.000000000      # N
385 1 1 0.000000000      16.211995559     12.960000000     0.000000000      # B
386 1 2 0.000000000      14.964918978     13.680000000     0.000000000      # N
387 1 1 0.000000000      14.964918978     15.120000000     0.000000000      # B
388 1 2 0.000000000      16.211995559     15.840000000     0.000000000      # N
389 1 1 0.000000000      18.706148722     12.960000000     0.000000000      # B
390 1 2 0.000000000      17.459072141     13.680000000     0.000000000      # N
391 1 1 0.000000000      17.459072141     15.120000000     0.000000000      # B
392 1 2 0.000000000      18.706148722     15.840000000     0.000000000      # N
393 1 1 0.000000000      21.200301885     12.960000000     0.000000000      # B
394 1 2 0.000000000      19.953225304     13.680000000     0.000000000      # N
395 1 1 0.000000000      19.953225304     15.120000000     0.000000000      # B
396 1 2 0.000000000      21.200301885     15.840000000     0.000000000      # N
397 1 1 0.000000000      23.694455048     12.960000000     0.000000000      # B
398 1 2 0.000000000      22.447378467     13.680000000     0.000000000      # N
399 1 1 0.000000000      22.447378467     15.120000000     0.000000000      # B
400 1 2 0.000000000      23.694455048     15.840000000     0.000000000      # N
401 1 1 0.000000000      26.188608211     12.960000000     0.000000000      # B
402 1 2 0.000000000      24.941531630     13.680000000     0.000000000      # N
403 1 1 0.000000000      24.941531630     15.120000000     0.000000000      # B
404 1 2 0.000000000      26.188608211     15.840000000     0.000000000      # N
405 1 1 0.000000000      28.682761374     12.960000000     0.000000000      # B
406 1 2 0.000000000      27.435684793     13.680000000     0.000000000      # N
407 1 1 0.000000000      27.435684793     15.120000000     0.000000000      # B
408 1 2 0.000000000      28.682761374     15.840000000     0.000000000      # N
409 1 1 0.000000000      31.176914537     12.960000000     0.000000000      # B
410 1 2 0.000000000      29.929837956     13.680000000     0.000000000      # N
411 1 1 0.000000000      29.929837956     15.120000000     0.000000000      # B
412 1 2 0.000000000      31.176914537     15.840000000     0.000000000      # N
413 1 1 0.000000000      33.671067700     12.960000000     0.000000000      # B
414 1 2 0.000000000      32.423991119     13.680000000     0.000000000      # N
415 1 1 0.000000000      32.423991119     15.120000000     0.000000000      # B
416 1 2 0.000000000      33.671067700     15.840000000     0.000000000      # N
417 1 1 0.000000000      36.165220863     12.960000000     0.000000000      # B
418 1 2 0.000000000      34.918144282     13.680000000     0.000000000      # N
419 1 1 0.000000000      34.918144282     15.120000000     0.000000000      # B
420 1 2 0.000000000      36.165220863     15.840000000     0.000000000      # N
421 1 1 0.000000000      38.659374026     12.960000000     0.000000000      # B
422 1 2 0.000000000      37.412297445     13.680000000     0.000000000      # N
423 1 1 0.000000000      37.412297445     15.120000000     0.000000000      # B
424 1 2 0.000000000      38.659374026     15.840000000     0.000000000      # N
425 1 1 0.000000000      41.153527189     12.960000000     0.000000000      # B
426 1 2 0.000000000      39.906450608     13.680000000     0.000000000      # N
427 1 1 0.000000000      39.906450608     15.120000000     0.000000000      # B
428 1 2 0.000000000      41.153527189     15.840000000     0.000000000      # N
429 1 1 0.000000000      43.647680352     12.960000000     0.000000000      # B
430 1 2 0.000000000      42.400603771     13.680000000     0.000000000      # N
431 1 1 0.000000000      42.400603771     15.120000000     0.000000000      # B
432 1 2 0.000000000      43.647680352     15.840000000     0.000000000      # N
433 1 1 0.000000000      46.141833515     12.960000000     0.000000000      # B
434 1 2 0.000000000      44.894756934     13.680000000     0.000000000      # N
435 1 1 0.000000000      44.894756934     15.120000000     0.000000000      # B
436 1 2 0.000000000      46.141833515     15.840000000     0.000000000      # N
437 1 1 0.000000000      48.635986678     12.960000000     0.000000000      # B
438 1 2 0.000000000      47.388910097     13.680000000     0.000000000      # N
439 1 1 0.000000000      47.388910097     15.120000000     0.000000000      # B
440 1 2 0.000000000      48.635986678     15.840000000     0.000000000      # N
441 1 1 0.000000000      51.130139841     12.960000000     0.000000000      # B
442 1 2 0.000000000      49.883063260     13.680000000     0.000000000      # N
443 1 1 0.000000000      49.883063260     15.120000000     0.000000000      # B
444 1 2 0.000000000      51.130139841     15.840000000     0.000000000      # N
445 1 1 0.000000000      53.624293004     12.960000000     0.000000000      # B
446 1 2 0.000000000      52.377216423     13.680000000     0.000000000      # N
447 1 1 0.000000000      52.377216423     15.120000000     0.000000000      # B
448 1 2 0.000000000      53.624293004     15.840000000     0.000000000      # N
449 1 1 0.000000000      56.118446167     12.960000000     0.000000000      # B
450 1 2 0.000000000      54.871369586     13.680000000     0.000000000      # N
451 1 1 0.000000000      54.871369586     15.120000000     0.000000000      # B
452 1 2 0.000000000      56.118446167     15.840000000     0.000000000      # N
453 1 1 0.000000000      58.612599330     12.960000000     0.000000000      # B
454 1 2 0.000000000      57.365522749     13.680000000     0.000000000      # N
455 1 1 0.000000000      57.365522749     15.120000000     0.000000000      # B
456 1 2 0.000000000      58.612599330     15.840000000     0.000000000      # N
457 1 1 0.000000000      61.106752493     12.960000000     0.000000000      # B
458 1 2 0.000000000      59.859675912     13.680000000     0.000000000      # N
459 1 1 0.000000000      59.859675912     15.120000000     0.000000000      # B
460 1 2 0.000000000      61.106752493     15.840000000     0.000000000      # N
461 1 1 0.000000000      63.600905656     12.960000000     0.000000000      # B
462 1 2 0.000000000      62.353829075     13.680000000     0.000000000      # N
463 1 1 0.000000000      62.353829075     15.120000000     0.000000000      # B
464 1 2 0.000000000      63.600905656     15.840000000     0.000000000      # N
465 1 1 0.000000000      66.095058819     12.960000000     0.000000000      # B
466 1 2 0.000000000      64.847982238     13.680000000     0.000000000      # N
467 1 1 0.000000000      64.847982238     15.120000000     0.000000000      # B
468 1 2 0.000000000      66.095058819     15.840000000     0.000000000      # N
469 1 1 0.000000000      68.589211982     12.960000000     0.000000000      # B
470 1 2 0.000000000      67.342135401     13.680000000     0.000000000      # N
471 1 1 0.000000000      67.342135401     15.120000000     0.000000000      # B
472 1 2 0.000000000      68.589211982     15.840000000     0.000000000      # N
473 1 1 0.000000000      71.083365145     12.960000000     0.000000000      # B
474 1 2 0.000000000      69.836288564     13.680000000     0.000000000      # N
475 1 1 0.000000000      69.836288564     15.120000000     0.000000000      # B
476 1 2 0.000000000      71.083365145     15.840000000     0.000000000      # N
477 1 1 0.000000000      73.577518308     12.960000000     0.000000000      # B
478 1 2 0.000000000      72.330441727     13.680000000     0.000000000      # N
479 1 1 0.000000000      72.330441727     15.120000000     0.000000000      # B
480 1 2 0.000000000      73.577518308     15.840000000     0.000000000      # N
481 1 1 0.000000000      1.247076581      17.280000000     0.000000000      # B
482 1 2 0.000000000      0.000000000      18.000000000     0.000000000      # N
483 1 1 0.000000000      0.000000000      19.440000000     0.000000000      # B
484 1 2 0.000000000      1.247076581      20.160000000     0.000000000      # N
485 1 1 0.000000000      3.741229744      17.280000000     0.000000000      # B
486 1 2 0.000000000      2.494153163      18.000000000     0.000000000      # N
487 1 1 0.000000000      2.494153163      19.440000000     0.000000000      # B
488 1 2 0.000000000      3.741229744      20.160000000     0.000000000      # N
489 1 1 0.000000000      6.235382907      17.280000000     0.000000000      # B
490 1 2 0.000000000      4.988306326      18.000000000     0.000000000      # N
491 1 1 0.000000000      4.988306326      19.440000000     0.000000000      # B
492 1 2 0.000000000      6.235382907      20.160000000     0.000000000      # N
493 1 1 0.000000000      8.729536070      17.280000000     0.000000000      # B
494 1 2 0.000000000      7.482459489      18.000000000     0.000000000      # N
495 1 1 0.000000000      7.482459489      19.440000000     0.000000000      # B
496 1 2 0.000000000      8.729536070      20.160000000     0.000000000      # N
497 1 1 0.000000000      11.223689233     17.280000000     0.000000000      # B
498 1 2 0.000000000      9.976612652      18.000000000     0.000000000      # N
499 1 1 0.000000000      9.976612652      19.440000000     0.000000000      # B
500 1 2 0.000000000      11.223689233     20.160000000     0.000000000      # N
501 1 1 0.000000000      13.717842396     17.280000000     0.000000000      # B
502 1 2 0.000000000      12.470765815     18.000000000     0.000000000      # N
503 1 1 0.000000000      12.470765815     19.440000000     0.000000000      # B
504 1 2 0.000000000      13.717842396     20.160000000     0.000000000      # N
505 1 1 0.000000000      16.211995559     17.280000000     0.000000000      # B
506 1 2 0.000000000      14.964918978     18.000000000     0.000000000      # N
507 1 1 0.000000000      14.964918978     19.440000000     0.000000000      # B
508 1 2 0.000000000      16.211995559     20.160000000     0.000000000      # N
509 1 1 0.000000000      18.706148722     17.280000000     0.000000000      # B
510 1 2 0.000000000      17.459072141     18.000000000     0.000000000      # N
511 1 1 0.000000000      17.459072141     19.440000000     0.000000000      # B
512 1 2 0.000000000      18.706148722     20.160000000     0.000000000      # N
513 1 1 0.000000000      21.200301885     17.280000000     0.000000000      # B
514 1 2 0.000000000      19.953225304     18.000000000     0.000000000      # N
515 1 1 0.000000000      19.953225304     19.440000000     0.000000000      # B
516 1 2 0.000000000      21.200301885     20.160000000     0.000000000      # N
517 1 1 0.000000000      23.694455048     17.280000000     0.000000000      # B
518 1 2 0.000000000      22.447378467     18.000000000     0.000000000      # N
519 1 1 0.000000000      22.447378467     19.440000000     0.000000000      # B
520 1 2 0.000000000      23.694455048     20.160000000     0.000000000      # N
521 1 1 0.000000000      26.188608211     17.280000000     0.000000000      # B
522 1 2 0.000000000      24.941531630     18.000000000     0.000000000      # N
523 1 1 0.000000000      24.941531630     19.440000000     0.000000000      # B
524 1 2 0.000000000      26.188608211     20.160000000     0.000000000      # N
525 1 1 0.000000000      28.682761374     17.280000000     0.000000000      # B
526 1 2 0.000000000      27.435684793     18.000000000     0.000000000      # N
527 1 1 0.000000000      27.435684793     19.440000000     0.000000000      # B
528 1 2 0.000000000      28.682761374     20.160000000     0.000000000      # N
529 1 1 0.000000000      31.176914537     17.280000000     0.000000000      # B
530 1 2 0.000000000      29.929837956     18.000000000     0.000000000      # N
531 1 1 0.000000000      29.929837956     19.440000000     0.000000000      # B
532 1 2 0.000000000      31.176914537     20.160000000     0.000000000      # N
533 1 1 0.000000000      33.671067700     17.280000000     0.000000000      # B
534 1 2 0.000000000      32.423991119     18.000000000     0.000000000      # N
535 1 1 0.000000000      32.423991119     19.440000000     0.000000000      # B
536 1 2 0.000000000      33.671067700     20.160000000     0.000000000      # N
537 1 1 0.000000000      36.165220863     17.280000000     0.000000000      # B
538 1 2 0.000000000      34.918144282     18.000000000     0.000000000      # N
539 1 1 0.000000000      34.918144282     19.440000000     0.000000000      # B
540 1 2 0.000000000      36.165220863     20.160000000     0.000000000      # N
541 1 1 0.000000000      38.659374026     17.280000000     0.000000000      # B
542 1 2 0.000000000      37.412297445     18.000000000     0.000000000      # N
543 1 1 0.000000000      37.412297445     19.440000000     0.000000000      # B
544 1 2 0.000000000      38.659374026     20.160000000     0.000000000      # N
545 1 1 0.000000000      41.153527189     17.280000000     0.000000000      # B
546 1 2 0.000000000      39.906450608     18.000000000     0.000000000      # N
547 1 1 0.000000000      39.906450608     19.440000000     0.000000000      # B
548 1 2 0.000000000      41.153527189     20.160000000     0.000000000      # N
549 1 1 0.000000000      43.647680352     17.280000000     0.000000000      # B
550 1 2 0.000000000      42.400603771     18.000000000     0.000000000      # N
551 1 1 0.000000000      42.400603771     19.440000000     0.000000000      # B
552 1 2 0.000000000      43.647680352     20.160000000     0.000000000      # N
553 1 1 0.000000000      46.141833515     17.280000000     0.000000000      # B
554 1 2 0.000000000      44.894756934     18.000000000     0.000000000      # N
555 1 1 0.000000000      44.894756934     19.440000000     0.000000000      # B
556 1 2 0.000000000      46.141833515     20.160000000     0.000000000      # N
557 1 1 0.000000000      48.635986678     17.280000000     0.000000000      # B
558 1 2 0.000000000      47.388910097     18.000000000     0.000000000      # N
559 1 1 0.000000000      47.388910097     19.440000000     0.000000000      # B
560 1 2 0.000000000      48.635986678     20.160000000     0.000000000      # N
561 1 1 0.000000000      51.130139841     17.280000000     0.000000000      # B
562 1 2 0.000000000      49.883063260     18.000000000     0.000000000      # N
563 1 1 0.000000000      49.883063260     19.440000000     0.000000000      # B
564 1 2 0.000000000      51.130139841     20.160000000     0.000000000      # N
565 1 1 0.000000000      53.624293004     17.280000000     0.000000000      # B
566 1 2 0.000000000      52.377216423     18.000000000     0.000000000      # N
567 1 1 0.000000000      52.377216423     19.440000000     0.000000000      # B
568 1 2 0.000000000      53.624293004     20.160000000     0.000000000      # N
569 1 1 0.000000000      56.118446167     17.280000000     0.000000000      # B
570 1 2 0.000000000      54.871369586     18.000000000     0.000000000      # N
571 1 1 0.000000000      54.871369586     19.440000000     0.000000000      # B
572 1 2 0.000000000      56.118446167     20.160000000     0.000000000      # N
573 1 1 0.000000000      58.612599330     17.280000000     0.000000000      # B
574 1 2 0.000000000      57.365522749     18.000000000     0.000000000      # N
575 1 1 0.000000000      57.365522749     19.440000000     0.000000000      # B
576 1 2 0.000000000      58.612599330     20.160000000     0.000000000      # N
577 1 1 0.000000000      61.106752493     17.280000000     0.000000000      # B
578 1 2 0.000000000      59.859675912     18.000000000     0.000000000      # N
579 1 1 0.000000000      59.859675912     19.440000000     0.000000000      # B
580 1 2 0.000000000      61.106752493     20.160000000     0.000000000      # N
581 1 1 0.000000000      63.600905656     17.280000000     0.000000000      # B
582 1 2 0.000000000      62.353829075     18.000000000     0.000000000      # N
583 1 1 0.000000000      62.353829075     19.440000000     0.000000000      # B
584 1 2 0.000000000      63.600905656     20.160000000     0.000000000      # N
585 1 1 0.000000000      66.095058819     17.280000000     0.000000000      # B
586 1 2 0.000000000      64.847982238     18.000000000     0.000000000      # N
587 1 1 0.000000000      64.847982238     19.440000000     0.000000000      # B
588 1 2 0.000000000      66.095058819     20.160000000     0.000000000      # N
589 1 1 0.000000000      68.589211982     17.280000000     0.000000000      # B
590 1 2 0.000000000      67.342135401     18.000000000     0.000000000      # N
591 1 1 0.000000000      67.342135401     19.440000000     0.000000000      # B
592 1 2 0.000000000      68.589211982     20.160000000     0.000000000      # N
593 1 1 0.000000000      71.083365145     17.280000000     0.000000000      # B
594 1 2 0.000000000      69.836288564     18.000000000     0.000000000      # N
595 1 1 0.000000000      69.836288564     19.440000000     0.000000000      # B
596 1 2 0.000000000      71.083365145     20.160000000     0.000000000      # N
597 1 1 0.000000000      73.577518308     17.280000000     0.000000000      # B
598 1 2 0.000000000      72.330441727     18.000000000     0.000000000      # N
599 1 1 0.000000000      72.330441727     19.440000000     0.000000000      # B
600 1 2 0.000000000      73.577518308     20.160000000     0.000000000      # N
601 1 1 0.000000000      1.247076581      21.600000000     0.000000000      # B
602 1 2 0.000000000      0.000000000      22.320000000     0.000000000      # N
603 1 1 0.000000000      0.000000000      23.760000000     0.000000000      # B
604 1 2 0.000000000      1.247076581      24.480000000     0.000000000      # N
605 1 1 0.000000000      3.741229744      21.600000000     0.000000000      # B
606 1 2 0.000000000      2.494153163      22.320000000     0.000000000      # N
607 1 1 0.000000000      2.494153163      23.760000000     0.000000000      # B
608 1 2 0.000000000      3.741229744      24.480000000     0.000000000      # N
609 1 1 0.000000000      6.235382907      21.600000000     0.000000000      # B
610 1 2 0.000000000      4.988306326      22.320000000     0.000000000      # N
611 1 1 0.000000000      4.988306326      23.760000000     0.000000000      # B
612 1 2 0.000000000      6.235382907      24.480000000     0.000000000      # N
613 1 1 0.000000000      8.729536070      21.600000000     0.000000000      # B
614 1 2 0.000000000      7.482459489      22.320000000     0.000000000      # N
615 1 1 0.000000000      7.482459489      23.760000000     0.000000000      # B
616 1 2 0.000000000      8.729536070      24.480000000     0.000000000      # N
617 1 1 0.000000000      11.223689233     21.600000000     0.000000000      # B
618 1 2 0.000000000      9.976612652      22.320000000     0.000000000      # N
619 1 1 0.000000000      9.976612652      23.760000000     0.000000000      # B
620 1 2 0.000000000      11.223689233     24.480000000     0.000000000      # N
621 1 1 0.000000000      13.717842396     21.600000000     0.000000000      # B
622 1 2 0.000000000      12.470765815     22.320000000     0.000000000      # N
623 1 1 0.000000000      12.470765815     23.760000000     0.000000000      # B
624 1 2 0.000000000      13.717842396     24.480000000     0.000000000      # N
625 1 1 0.000000000      16.211995559     21.600000000     0.000000000      # B
626 1 2 0.000000000      14.964918978     22.320000000     0.000000000      # N
627 1 1 0.000000000      14.964918978     23.760000000     0.000000000      # B
628 1 2 0.000000000      16.211995559     24.480000000     0.000000000      # N
629 1 1 0.000000000      18.706148722     21.600000000     0.000000000      # B
630 1 2 0.000000000      17.459072141     22.320000000     0.000000000      # N
631 1 1 0.000000000      17.459072141     23.760000000     0.000000000      # B
632 1 2 0.000000000      18.706148722     24.480000000     0.000000000      # N
633 1 1 0.000000000      21.200301885     21.600000000     0.000000000      # B
634 1 2 0.000000000      19.953225304     22.320000000     0.000000000      # N
635 1 1 0.000000000      19.953225304     23.760000000     0.000000000      # B
636 1 2 0.000000000      21.200301885     24.480000000     0.000000000      # N
637 1 1 0.000000000      23.694455048     21.600000000     0.000000000      # B
638 1 2 0.000000000      22.447378467     22.320000000     0.000000000      # N
639 1 1 0.000000000      22.447378467     23.760000000     0.000000000      # B
640 1 2 0.000000000      23.694455048     24.480000000     0.000000000      # N
641 1 1 0.000000000      26.188608211     21.600000000     0.000000000      # B
642 1 2 0.000000000      24.941531630     22.320000000     0.000000000      # N
643 1 1 0.000000000      24.941531630     23.760000000     0.000000000      # B
644 1 2 0.000000000      26.188608211     24.480000000     0.000000000      # N
645 1 1 0.000000000      28.682761374     21.600000000     0.000000000      # B
646 1 2 0.000000000      27.435684793     22.320000000     0.000000000      # N
647 1 1 0.000000000      27.435684793     23.760000000     0.000000000      # B
648 1 2 0.000000000      28.682761374     24.480000000     0.000000000      # N
649 1 1 0.000000000      31.176914537     21.600000000     0.000000000      # B
650 1 2 0.000000000      29.929837956     22.320000000     0.000000000      # N
651 1 1 0.000000000      29.929837956     23.760000000     0.000000000      # B
652 1 2 0.000000000      31.176914537     24.480000000     0.000000000      # N
653 1 1 0.000000000      33.671067700     21.600000000     0.000000000      # B
654 1 2 0.000000000      32.423991119     22.320000000     0.000000000      # N
655 1 1 0.000000000      32.423991119     23.760000000     0.000000000      # B
656 1 2 0.000000000      33.671067700     24.480000000     0.000000000      # N
657 1 1 0.000000000      36.165220863     21.600000000     0.000000000      # B
658 1 2 0.000000000      34.918144282     22.320000000     0.000000000      # N
659 1 1 0.000000000      34.918144282     23.760000000     0.000000000      # B
660 1 2 0.000000000      36.165220863     24.480000000     0.000000000      # N
661 1 1 0.000000000      38.659374026     21.600000000     0.000000000      # B
662 1 2 0.000000000      37.412297445     22.320000000     0.000000000      # N
663 1 1 0.000000000      37.412297445     23.760000000     0.000000000      # B
664 1 2 0.000000000      38.659374026     24.480000000     0.000000000      # N
665 1 1 0.000000000      41.153527189     21.600000000     0.000000000      # B
666 1 2 0.000000000      39.906450608     22.320000000     0.000000000      # N
667 1 1 0.000000000      39.906450608     23.760000000     0.000000000      # B
668 1 2 0.000000000      41.153527189     24.480000000     0.000000000      # N
669 1 1 0.000000000      43.647680352     21.600000000     0.000000000      # B
670 1 2 0.000000000      42.400603771     22.320000000     0.000000000      # N
671 1 1 0.000000000      42.400603771     23.760000000     0.000000000      # B
672 1 2 0.000000000      43.647680352     24.480000000     0.000000000      # N
673 1 1 0.000000000      46.141833515     21.600000000     0.000000000      # B
674 1 2 0.000000000      44.894756934     22.320000000     0.000000000      # N
675 1 1 0.000000000      44.894756934     23.760000000     0.000000000      # B
676 1 2 0.000000000      46.141833515     24.480000000     0.000000000      # N
677 1 1 0.000000000      48.635986678     21.600000000     0.000000000      # B
678 1 2 0.000000000      47.388910097     22.320000000     0.000000000      # N
679 1 1 0.000000000      47.388910097     23.760000000     0.000000000      # B
680 1 2 0.000000000      48.635986678     24.480000000     0.000000000      # N
681 1 1 0.000000000      51.130139841     21.600000000     0.000000000      # B
682 1 2 0.000000000      49.883063260     22.320000000     0.000000000      # N
683 1 1 0.000000000      49.883063260     23.760000000     0.000000000      # B
684 1 2 0.000000000      51.130139841     24.480000000     0.000000000      # N
685 1 1 0.000000000      53.624293004     21.600000000     0.000000000      # B
686 1 2 0.000000000      52.377216423     22.320000000     0.000000000      # N
687 1 1 0.000000000      52.377216423     23.760000000     0.000000000      # B
688 1 2 0.000000000      53.624293004     24.480000000     0.000000000      # N
689 1 1 0.000000000      56.118446167     21.600000000     0.000000000      # B
690 1 2 0.000000000      54.871369586     22.320000000     0.000000000      # N
691 1 1 0.000000000      54.871369586     23.760000000     0.000000000      # B
692 1 2 0.000000000      56.118446167     24.480000000     0.000000000      # N
693 1 1 0.000000000      58.612599330     21.600000000     0.000000000      # B
694 1 2 0.000000000      57.365522749     22.320000000     0.000000000      # N
695 1 1 0.000000000      57.365522749     23.760000000     0.000000000      # B
696 1 2 0.000000000      58.612599330     24.480000000     0.000000000      # N
697 1 1 0.000000000      61.106752493     21.600000000     0.000000000      # B
698 1 2 0.000000000      59.859675912     22.320000000     0.000000000      # N
699 1 1 0.000000000      59.859675912     23.760000000     0.000000000      # B
700 1 2 0.000000000      61.106752493     24.480000000     0.000000000      # N
701 1 1 0.000000000      63.600905656     21.600000000     0.000000000      # B
702 1 2 0.000000000      62.353829075     22.320000000     0.000000000      # N
703 1 1 0.000000000      62.353829075     23.760000000     0.000000000      # B
704 1 2 0.000000000      63.600905656     24.480000000     0.000000000      # N
705 1 1 0.000000000      66.095058819     21.600000000     0.000000000      # B
706 1 2 0.000000000      64.847982238     22.320000000     0.000000000      # N
707 1 1 0.000000000      64.847982238     23.760000000     0.000000000      # B
708 1 2 0.000000000      66.095058819     24.480000000     0.000000000      # N
709 1 1 0.000000000      68.589211982     21.600000000     0.000000000      # B
710 1 2 0.000000000      67.342135401     22.320000000     0.000000000      # N
711 1 1 0.000000000      67.342135401     23.760000000     0.000000000      # B
712 1 2 0.000000000      68.589211982     24.480000000     0.000000000      # N
713 1 1 0.000000000      71.083365145     21.600000000     0.000000000      # B
714 1 2 0.000000000      69.836288564     22.320000000     0.000000000      # N
715 1 1 0.000000000      69.836288564     23.760000000     0.000000000      # B
716 1 2 0.000000000      71.083365145     24.480000000     0.000000000      # N
717 1 1 0.000000000      73.577518308     21.600000000     0.000000000      # B
718 1 2 0.000000000      72.330441727     22.320000000     0.000000000      # N
719 1 1 0.000000000      72.330441727     23.760000000     0.000000000      # B
720 1 2 0.000000000      73.577518308     24.480000000     0.000000000      # N
721 1 1 0.000000000      1.247076581      25.920000000     0.000000000      # B
722 1 2 0.000000000      0.000000000      26.640000000     0.000000000      # N
723 1 1 0.000000000      0.000000000      28.080000000     0.000000000      # B
724 1 2 0.000000000      1.247076581      28.800000000     0.000000000      # N
725 1 1 0.000000000      3.741229744      25.920000000     0.000000000      # B
726 1 2 0.000000000      2.494153163      26.640000000     0.000000000      # N
727 1 1 0.000000000      2.494153163      28.080000000     0.000000000      # B
728 1 2 0.000000000      3.741229744      28.800000000     0.000000000      # N
729 1 1 0.000000000      6.235382907      25.920000000     0.000000000      # B
730 1 2 0.000000000      4.988306326      26.640000000     0.000000000      # N
731 1 1 0.000000000      4.988306326      28.080000000     0.000000000      # B
732 1 2 0.000000000      6.235382907      28.800000000     0.000000000      # N
733 1 1 0.000000000      8.729536070      25.920000000     0.000000000      # B
734 1 2 0.000000000      7.482459489      26.640000000     0.000000000      # N
735 1 1 0.000000000      7.482459489      28.080000000     0.000000000      # B
736 1 2 0.000000000      8.729536070      28.800000000     0.000000000      # N
737 1 1 0.000000000      11.223689233     25.920000000     0.000000000      # B
738 1 2 0.000000000      9.976612652      26.640000000     0.000000000      # N
739 1 1 0.000000000      9.976612652      28.080000000     0.000000000      # B
740 1 2 0.000000000      11.223689233     28.800000000     0.000000000      # N
741 1 1 0.000000000      13.717842396     25.920000000     0.000000000      # B
742 1 2 0.000000000      12.470765815     26.640000000     0.000000000      # N
743 1 1 0.000000000      12.470765815     28.080000000     0.000000000      # B
744 1 2 0.000000000      13.717842396     28.800000000     0.000000000      # N
745 1 1 0.000000000      16.211995559     25.920000000     0.000000000      # B
746 1 2 0.000000000      14.964918978     26.640000000     0.000000000      # N
747 1 1 0.000000000      14.964918978     28.080000000     0.000000000      # B
748 1 2 0.000000000      16.211995559     28.800000000     0.000000000      # N
749 1 1 0.000000000      18.706148722     25.920000000     0.000000000      # B
750 1 2 0.000000000      17.459072141     26.640000000     0.000000000      # N
751 1 1 0.000000000      17.459072141     28.080000000     0.000000000      # B
752 1 2 0.000000000      18.706148722     28.800000000     0.000000000      # N
753 1 1 0.000000000      21.200301885     25.920000000     0.000000000      # B
754 1 2 0.000000000      19.953225304     26.640000000     0.000000000      # N
755 1 1 0.000000000      19.953225304     28.080000000     0.000000000      # B
756 1 2 0.000000000      21.200301885     28.800000000     0.000000000      # N
757 1 1 0.000000000      23.694455048     25.920000000     0.000000000      # B
758 1 2 0.000000000      22.447378467     26.640000000     0.000000000      # N
759 1 1 0.000000000      22.447378467     28.080000000     0.000000000      # B
760 1 2 0.000000000      23.694455048     28.800000000     0.000000000      # N
761 1 1 0.000000000      26.188608211     25.920000000     0.000000000      # B
762 1 2 0.000000000      24.941531630     26.640000000     0.000000000      # N
763 1 1 0.000000000      24.941531630     28.080000000     0.000000000      # B
764 1 2 0.000000000      26.188608211     28.800000000     0.000000000      # N
765 1 1 0.000000000      28.682761374     25.920000000     0.000000000      # B
766 1 2 0.000000000      27.435684793     26.640000000     0.000000000      # N
767 1 1 0.000000000      27.435684793     28.080000000     0.000000000      # B
768 1 2 0.000000000      28.682761374     28.800000000     0.000000000      # N
769 1 1 0.000000000      31.176914537     25.920000000     0.000000000      # B
770 1 2 0.000000000      29.929837956     26.640000000     0.000000000      # N
771 1 1 0.000000000      29.929837956     28.080000000     0.000000000      # B
772 1 2 0.000000000      31.176914537     28.800000000     0.000000000      # N
773 1 1 0.000000000      33.671067700     25.920000000     0.000000000      # B
774 1 2 0.000000000      32.423991119     26.640000000     0.000000000      # N
775 1 1 0.000000000      32.423991119     28.080000000     0.000000000      # B
776 1 2 0.000000000      33.671067700     28.800000000     0.000000000      # N
777 1 1 0.000000000      36.165220863     25.920000000     0.000000000      # B
778 1 2 0.000000000      34.918144282     26.640000000     0.000000000      # N
779 1 1 0.000000000      34.918144282     28.080000000     0.000000000      # B
780 1 2 0.000000000      36.165220863     28.800000000     0.000000000      # N
781 1 1 0.000000000      38.659374026     25.920000000     0.000000000      # B
782 1 2 0.000000000      37.412297445     26.640000000     0.000000000      # N
783 1 1 0.000000000      37.412297445     28.080000000     0.000000000      # B
784 1 2 0.000000000      38.659374026     28.800000000     0.000000000      # N
785 1 1 0.000000000      41.153527189     25.920000000     0.000000000      # B
786 1 2 0.000000000      39.906450608     26.640000000     0.000000000      # N
787 1 1 0.000000000      39.906450608     28.080000000     0.000000000      # B
788 1 2 0.000000000      41.153527189     28.800000000     0.000000000      # N
789 1 1 0.000000000      43.647680352     25.920000000     0.000000000      # B
790 1 2 0.000000000      42.400603771     26.640000000     0.000000000      # N
791 1 1 0.000000000      42.400603771     28.080000000     0.000000000      # B
792 1 2 0.000000000      43.647680352     28.800000000     0.000000000      # N
793 1 1 0.000000000      46.141833515     25.920000000     0.000000000      # B
794 1 2 0.000000000      44.894756934     26.640000000     0.000000000      # N
795 1 1 0.000000000      44.894756934     28.080000000     0.000000000      # B
796 1 2 0.000000000      46.141833515     28.800000000     0.000000000      # N
797 1 1 0.000000000      48.635986678     25.920000000     0.000000000      # B
798 1 2 0.000000000      47.388910097     26.640000000     0.000000000      # N
799 1 1 0.000000000      47.388910097     28.080000000     0.000000000      # B
800 1 2 0.000000000      48.635986678     28.800000000     0.000000000      # N
801 1 1 0.000000000      51.130139841     25.920000000     0.000000000      # B
802 1 2 0.000000000      49.883063260     26.640000000     0.000000000      # N
803 1 1 0.000000000      49.883063260     28.080000000     0.000000000      # B
804 1 2 0.000000000      51.130139841     28.800000000     0.000000000      # N
805 1 1 0.000000000      53.624293004     25.920000000     0.000000000      # B
806 1 2 0.000000000      52.377216423     26.640000000     0.000000000      # N
807 1 1 0.000000000      52.377216423     28.080000000     0.000000000      # B
808 1 2 0.000000000      53.624293004     28.800000000     0.000000000      # N
809 1 1 0.000000000      56.118446167     25.920000000     0.000000000      # B
810 1 2 0.000000000      54.871369586     26.640000000     0.000000000      # N
811 1 1 0.000000000      54.871369586     28.080000000     0.000000000      # B
812 1 2 0.000000000      56.118446167     28.800000000     0.000000000      # N
813 1 1 0.000000000      58.612599330     25.920000000     0.000000000      # B
814 1 2 0.000000000      57.365522749     26.640000000     0.000000000      # N
815 1 1 0.000000000      57.365522749     28.080000000     0.000000000      # B
816 1 2 0.000000000      58.612599330     28.800000000     0.000000000      # N
817 1 1 0.000000000      61.106752493     25.920000000     0.000000000      # B
818 1 2 0.000000000      59.859675912     26.640000000     0.000000000      # N
819 1 1 0.000000000      59.859675912     28.080000000     0.000000000      # B
820 1 2 0.000000000      61.106752493     28.800000000     0.000000000      # N
821 1 1 0.000000000      63.600905656     25.920000000     0.000000000      # B
822 1 2 0.000000000      62.353829075     26.640000000     0.000000000      # N
823 1 1 0.000000000      62.353829075     28.080000000     0.000000000      # B
824 1 2 0.000000000      63.600905656     28.800000000     0.000000000      # N
825 1 1 0.000000000      66.095058819     25.920000000     0.000000000      # B
826 1 2 0.000000000      64.847982238     26.640000000     0.000000000      # N
827 1 1 0.000000000      64.847982238     28.080000000     0.000000000      # B
828 1 2 0.000000000      66.095058819     28.800000000     0.000000000      # N
829 1 1 0.000000000      68.589211982     25.920000000     0.000000000      # B
830 1 2 0.000000000      67.342135401     26.640000000     0.000000000      # N
831 1 1 0.000000000      67.342135401     28.080000000     0.000000000      # B
832 1 2 0.000000000      68.589211982     28.800000000     0.000000000      # N
833 1 1 0.000000000      71.083365145     25.920000000     0.000000000      # B
834 1 2 0.000000000      69.836288564     26.640000000     0.000000000      # N
835 1 1 0.000000000      69.836288564     28.080000000     0.000000000      # B
836 1 2 0.000000000      71.083365145     28.800000000     0.000000000      # N
837 1 1 0.000000000      73.577518308     25.920000000     0.000000000      # B
838 1 2 0.000000000      72.330441727     26.640000000     0.000000000      # N
839 1 1 0.000000000      72.330441727     28.080000000     0.000000000      # B
840 1 2 0.000000000      73.577518308     28.800000000     0.000000000      # N
841 1 1 0.000000000      1.247076581      30.240000000     0.000000000      # B
842 1 2 0.000000000      0.000000000      30.960000000     0.000000000      # N
843 1 1 0.000000000      0.000000000      32.400000000     0.000000000      # B
844 1 2 0.000000000      1.247076581      33.120000000     0.000000000      # N
845 1 1 0.000000000      3.741229744      30.240000000     0.000000000      # B
846 1 2 0.000000000      2.494153163      30.960000000     0.000000000      # N
847 1 1 0.000000000      2.494153163      32.400000000     0.000000000      # B
848 1 2 0.000000000      3.741229744      33.120000000     0.000000000      # N
849 1 1 0.000000000      6.235382907      30.240000000     0.000000000      # B
850 1 2 0.000000000      4.988306326      30.960000000     0.000000000      # N
851 1 1 0.000000000      4.988306326      32.400000000     0.000000000      # B
852 1 2 0.000000000      6.235382907      33.120000000     0.000000000      # N
853 1 1 0.000000000      8.729536070      30.240000000     0.000000000      # B
854 1 2 0.000000000      7.482459489      30.960000000     0.000000000      # N
855 1 1 0.000000000      7.482459489      32.400000000     0.000000000      # B
856 1 2 0.000000000      8.729536070      33.120000000     0.000000000      # N
857 1 1 0.000000000      11.223689233     30.240000000     0.000000000      # B
858 1 2 0.000000000      9.976612652      30.960000000     0.000000000      # N
859 1 1 0.000000000      9.976612652      32.400000000     0.000000000      # B
860 1 2 0.000000000      11.223689233     33.120000000     0.000000000      # N
861 1 1 0.000000000      13.717842396     30.240000000     0.000000000      # B
862 1 2 0.000000000      12.470765815     30.960000000     0.000000000      # N
863 1 1 0.000000000      12.470765815     32.400000000     0.000000000      # B
864 1 2 0.000000000      13.717842396     33.120000000     0.000000000      # N
865 1 1 0.000000000      16.211995559     30.240000000     0.000000000      # B
866 1 2 0.000000000      14.964918978     30.960000000     0.000000000      # N
867 1 1 0.000000000      14.964918978     32.400000000     0.000000000      # B
868 1 2 0.000000000      16.211995559     33.120000000     0.000000000      # N
869 1 1 0.000000000      18.706148722     30.240000000     0.000000000      # B
870 1 2 0.000000000      17.459072141     30.960000000     0.000000000      # N
871 1 1 0.000000000      17.459072141     32.400000000     0.000000000      # B
872 1 2 0.000000000      18.706148722     33.120000000     0.000000000      # N
873 1 1 0.000000000      21.200301885     30.240000000     0.000000000      # B
874 1 2 0.000000000      19.953225304     30.960000000     0.000000000      # N
875 1 1 0.000000000      19.953225304     32.400000000     0.000000000      # B
876 1 2 0.000000000      21.200301885     33.120000000     0.000000000      # N
877 1 1 0.000000000      23.694455048     30.240000000     0.000000000      # B
878 1 2 0.000000000      22.447378467     30.960000000     0.000000000      # N
879 1 1 0.000000000      22.447378467     32.400000000     0.000000000      # B
880 1 2 0.000000000      23.694455048     33.120000000     0.000000000      # N
881 1 1 0.000000000      26.188608211     30.240000000     0.000000000      # B
882 1 2 0.000000000      24.941531630     30.960000000     0.000000000      # N
883 1 1 0.000000000      24.941531630     32.400000000     0.000000000      # B
884 1 2 0.000000000      26.188608211     33.120000000     0.000000000      # N
885 1 1 0.000000000      28.682761374     30.240000000     0.000000000      # B
886 1 2 0.000000000      27.435684793     30.960000000     0.000000000      # N
887 1 1 0.000000000      27.435684793     32.400000000     0.000000000      # B
888 1 2 0.000000000      28.682761374     33.120000000     0.000000000      # N
889 1 1 0.000000000      31.176914537     30.240000000     0.000000000      # B
890 1 2 0.000000000      29.929837956     30.960000000     0.000000000      # N
891 1 1 0.000000000      29.929837956     32.400000000     0.000000000      # B
892 1 2 0.000000000      31.176914537     33.120000000     0.000000000      # N
893 1 1 0.000000000      33.671067700     30.240000000     0.000000000      # B
894 1 2 0.000000000      32.423991119     30.960000000     0.000000000      # N
895 1 1 0.000000000      32.423991119     32.400000000     0.000000000      # B
896 1 2 0.000000000      33.671067700     33.120000000     0.000000000      # N
897 1 1 0.000000000      36.165220863     30.240000000     0.000000000      # B
898 1 2 0.000000000      34.918144282     30.960000000     0.000000000      # N
899 1 1 0.000000000      34.918144282     32.400000000     0.000000000      # B
900 1 2 0.000000000      36.165220863     33.120000000     0.000000000      # N
901 1 1 0.000000000      38.659374026     30.240000000     0.000000000      # B
902 1 2 0.000000000      37.412297445     30.960000000     0.000000000      # N
903 1 1 0.000000000      37.412297445     32.400000000     0.000000000      # B
904 1 2 0.000000000      38.659374026     33.120000000     0.000000000      # N
905 1 1 0.000000000      41.153527189     30.240000000     0.000000000      # B
906 1 2 0.000000000      39.906450608     30.960000000     0.000000000      # N
907 1 1 0.000000000      39.906450608     32.400000000     0.000000000      # B
908 1 2 0.000000000      41.153527189     33.120000000     0.000000000      # N
909 1 1 0.000000000      43.647680352     30.240000000     0.000000000      # B
910 1 2 0.000000000      42.400603771     30.960000000     0.000000000      # N
911 1 1 0.000000000      42.400603771     32.400000000     0.000000000      # B
912 1 2 0.000000000      43.647680352     33.120000000     0.000000000      # N
913 1 1 0.000000000      46.141833515     30.240000000     0.000000000      # B
914 1 2 0.000000000      44.894756934     30.960000000     0.000000000      # N
915 1 1 0.000000000      44.894756934     32.400000000     0.000000000      # B
916 1 2 0.000000000      46.141833515     33.120000000     0.000000000      # N
917 1 1 0.000000000      48.635986678     30.240000000     0.000000000      # B
918 1 2 0.000000000      47.388910097     30.960000000     0.000000000      # N
919 1 1 0.000000000      47.388910097     32.400000000     0.000000000      # B
920 1 2 0.000000000      48.635986678     33.120000000     0.000000000      # N
921 1 1 0.000000000      51.130139841     30.240000000     0.000000000      # B
922 1 2 0.000000000      49.883063260     30.960000000     0.000000000      # N
923 1 1 0.000000000      49.883063260     32.400000000     0.000000000      # B
924 1 2 0.000000000      51.130139841     33.120000000     0.000000000      # N
925 1 1 0.000000000      53.624293004     30.240000000     0.000000000      # B
926 1 2 0.000000000      52.377216423     30.960000000     0.000000000      # N
927 1 1 0.000000000      52.377216423     32.400000000     0.000000000      # B
928 1 2 0.000000000      53.624293004     33.120000000     0.000000000      # N
929 1 1 0.000000000      56.118446167     30.240000000     0.000000000      # B
930 1 2 0.000000000      54.871369586     30.960000000     0.000000000      # N
931 1 1 0.000000000      54.871369586     32.400000000     0.000000000      # B
932 1 2 0.000000000      56.118446167     33.120000000     0.000000000      # N
933 1 1 0.000000000      58.612599330     30.240000000     0.000000000      # B
934 1 2 0.000000000      57.365522749     30.960000000     0.000000000      # N
935 1 1 0.000000000      57.365522749     32.400000000     0.000000000      # B
936 1 2 0.000000000      58.612599330     33.120000000     0.000000000      # N
937 1 1 0.000000000      61.106752493     30.240000000     0.000000000      # B
938 1 2 0.000000000      59.859675912     30.960000000     0.000000000      # N
939 1 1 0.000000000      59.859675912     32.400000000     0.000000000      # B
940 1 2 0.000000000      61.106752493     33.120000000     0.000000000      # N
941 1 1 0.000000000      63.600905656     30.240000000     0.000000000      # B
942 1 2 0.000000000      62.353829075     30.960000000     0.000000000      # N
943 1 1 0.000000000      62.353829075     32.400000000     0.000000000      # B
944 1 2 0.000000000      63.600905656     33.120000000     0.000000000      # N
945 1 1 0.000000000      66.095058819     30.240000000     0.000000000      # B
946 1 2 0.000000000      64.847982238     30.960000000     0.000000000      # N
947 1 1 0.000000000      64.847982238     32.400000000     0.000000000      # B
948 1 2 0.000000000      66.095058819     33.120000000     0.000000000      # N
949 1 1 0.000000000      68.589211982     30.240000000     0.000000000      # B
950 1 2 0.000000000      67.342135401     30.960000000     0.000000000      # N
951 1 1 0.000000000      67.342135401     32.400000000     0.000000000      # B
952 1 2 0.000000000      68.589211982     33.120000000     0.000000000      # N
953 1 1 0.000000000      71.083365145     30.240000000     0.000000000      # B
954 1 2 0.000000000      69.836288564     30.960000000     0.000000000      # N
955 1 1 0.000000000      69.836288564     32.400000000     0.000000000      # B
956 1 2 0.000000000      71.083365145     33.120000000     0.000000000      # N
957 1 1 0.000000000      73.577518308     30.240000000     0.000000000      # B
958 1 2 0.000000000      72.330441727     30.960000000     0.000000000      # N
959 1 1 0.000000000      72.330441727     32.400000000     0.000000000      # B
960 1 2 0.000000000      73.577518308     33.120000000     0.000000000      # N
961 1 1 0.000000000      1.247076581      34.560000000     0.000000000      # B
962 1 2 0.000000000      0.000000000      35.280000000     0.000000000      # N
963 1 1 0.000000000      0.000000000      36.720000000     0.000000000      # B
964 1 2 0.000000000      1.247076581      37.440000000     0.000000000      # N
965 1 1 0.000000000      3.741229744      34.560000000     0.000000000      # B
966 1 2 0.000000000      2.494153163      35.280000000     0.000000000      # N
967 1 1 0.000000000      2.494153163      36.720000000     0.000000000      # B
968 1 2 0.000000000      3.741229744      37.440000000     0.000000000      # N
969 1 1 0.000000000      6.235382907      34.560000000     0.000000000      # B
970 1 2 0.000000000      4.988306326      35.280000000     0.000000000      # N
971 1 1 0.000000000      4.988306326      36.720000000     0.000000000      # B
972 1 2 0.000000000      6.235382907      37.440000000     0.000000000      # N
973 1 1 0.000000000      8.729536070      34.560000000     0.000000000      # B
974 1 2 0.000000000      7.482459489      35.280000000     0.000000000      # N
975 1 1 0.000000000      7.482459489      36.720000000     0.000000000      # B
976 1 2 0.000000000      8.729536070      37.440000000     0.000000000      # N
977 1 1 0.000000000      11.223689233     34.560000000     0.000000000      # B
978 1 2 0.000000000      9.976612652      35.280000000     0.000000000      # N
979 1 1 0.000000000      9.976612652      36.720000000     0.000000000      # B
980 1 2 0.000000000      11.223689233     37.440000000     0.000000000      # N
981 1 1 0.000000000      13.717842396     34.560000000     0.000000000      # B
982 1 2 0.000000000      12.470765815     35.280000000     0.000000000      # N
983 1 1 0.000000000      12.470765815     36.720000000     0.000000000      # B
984 1 2 0.000000000      13.717842396     37.440000000     0.000000000      # N
985 1 1 0.000000000      16.211995559     34.560000000     0.000000000      # B
986 1 2 0.000000000      14.964918978     35.280000000     0.000000000      # N
987 1 1 0.000000000      14.964918978     36.720000000     0.000000000      # B
988 1 2 0.000000000      16.211995559     37.440000000     0.000000000      # N
989 1 1 0.000000000      18.706148722     34.560000000     0.000000000      # B
990 1 2 0.000000000      17.459072141     35.280000000     0.000000000      # N
991 1 1 0.000000000      17.459072141     36.720000000     0.000000000      # B
992 1 2 0.000000000      18.706148722     37.440000000     0.000000000      # N
993 1 1 0.000000000      21.200301885     34.560000000     0.000000000      # B
994 1 2 0.000000000      19.953225304     35.280000000     0.000000000      # N
995 1 1 0.000000000      19.953225304     36.720000000     0.000000000      # B
996 1 2 0.000000000      21.200301885     37.440000000     0.000000000      # N
997 1 1 0.000000000      23.694455048     34.560000000     0.000000000      # B
998 1 2 0.000000000      22.447378467     35.280000000     0.000000000      # N
999 1 1 0.000000000      22.447378467     36.720000000     0.000000000      # B
1000 1 2 0.000000000      23.694455048     37.440000000     0.000000000      # N
1001 1 1 0.000000000      26.188608211     34.560000000     0.000000000      # B
1002 1 2 0.000000000      24.941531630     35.280000000     0.000000000      # N
1003 1 1 0.000000000      24.941531630     36.720000000     0.000000000      # B
1004 1 2 0.000000000      26.188608211     37.440000000     0.000000000      # N
1005 1 1 0.000000000      28.682761374     34.560000000     0.000000000      # B
1006 1 2 0.000000000      27.435684793     35.280000000     0.000000000      # N
1007 1 1 0.000000000      27.435684793     36.720000000     0.000000000      # B
1008 1 2 0.000000000      28.682761374     37.440000000     0.000000000      # N
1009 1 1 0.000000000      31.176914537     34.560000000     0.000000000      # B
1010 1 2 0.000000000      29.929837956     35.280000000     0.000000000      # N
1011 1 1 0.000000000      29.929837956     36.720000000     0.000000000      # B
1012 1 2 0.000000000      31.176914537     37.440000000     0.000000000      # N
1013 1 1 0.000000000      33.671067700     34.560000000     0.000000000      # B
1014 1 2 0.000000000      32.423991119     35.280000000     0.000000000      # N
1015 1 1 0.000000000      32.423991119     36.720000000     0.000000000      # B
1016 1 2 0.000000000      33.671067700     37.440000000     0.000000000      # N
1017 1 1 0.000000000      36.165220863     34.560000000     0.000000000      # B
1018 1 2 0.000000000      34.918144282     35.280000000     0.000000000      # N
1019 1 1 0.000000000      34.918144282     36.720000000     0.000000000      # B
1020 1 2 0.000000000      36.165220863     37.440000000     0.000000000      # N
1021 1 1 0.000000000      38.659374026     34.560000000     0.000000000      # B
1022 1 2 0.000000000      37.412297445     35.280000000     0.000000000      # N
1023 1 1 0.000000000      37.412297445     36.720000000     0.000000000      # B
1024 1 2 0.000000000      38.659374026     37.440000000     0.000000000      # N
1025 1 1 0.000000000      41.153527189     34.560000000     0.000000000      # B
1026 1 2 0.000000000      39.906450608     35.280000000     0.000000000      # N
1027 1 1 0.000000000      39.906450608     36.720000000     0.000000000      # B
1028 1 2 0.000000000      41.153527189     37.440000000     0.000000000      # N
1029 1 1 0.000000000      43.647680352     34.560000000     0.000000000      # B
1030 1 2 0.000000000      42.400603771     35.280000000     0.000000000      # N
1031 1 1 0.000000000      42.400603771     36.720000000     0.000000000      # B
1032 1 2 0.000000000      43.647680352     37.440000000     0.000000000      # N
1033 1 1 0.000000000      46.141833515     34.560000000     0.000000000      # B
1034 1 2 0.000000000      44.894756934     35.280000000     0.000000000      # N
1035 1 1 0.000000000      44.894756934     36.720000000     0.000000000      # B
1036 1 2 0.000000000      46.141833515     37.440000000     0.000000000      # N
1037 1 1 0.000000000      48.635986678     34.560000000     0.000000000      # B
1038 1 2 0.000000000      47.388910097     35.280000000     0.000000000      # N
1039 1 1 0.000000000      47.388910097     36.720000000     0.000000000      # B
1040 1 2 0.000000000      48.635986678     37.440000000     0.000000000      # N
1041 1 1 0.000000000      51.130139841     34.560000000     0.000000000      # B
1042 1 2 0.000000000      49.883063260     35.280000000     0.000000000      # N
1043 1 1 0.000000000      49.883063260     36.720000000     0.000000000      # B
1044 1 2 0.000000000      51.130139841     37.440000000     0.000000000      # N
1045 1 1 0.000000000      53.624293004     34.560000000     0.000000000      # B
1046 1 2 0.000000000      52.377216423     35.280000000     0.000000000      # N
1047 1 1 0.000000000      52.377216423     36.720000000     0.000000000      # B
1048 1 2 0.000000000      53.624293004     37.440000000     0.000000000      # N
1049 1 1 0.000000000      56.118446167     34.560000000     0.000000000      # B
1050 1 2 0.000000000      54.871369586     35.280000000     0.000000000      # N
1051 1 1 0.000000000      54.871369586     36.720000000     0.000000000      # B
1052 1 2 0.000000000      56.118446167     37.440000000     0.000000000      # N
1053 1 1 0.000000000      58.612599330     34.560000000     0.000000000      # B
1054 1 2 0.000000000      57.365522749     35.280000000     0.000000000      # N
1055 1 1 0.000000000      57.365522749     36.720000000     0.000000000      # B
1056 1 2 0.000000000      58.612599330     37.440000000     0.000000000      # N
1057 1 1 0.000000000      61.106752493     34.560000000     0.000000000      # B
1058 1 2 0.000000000      59.859675912     35.280000000     0.000000000      # N
1059 1 1 0.000000000      59.859675912     36.720000000     0.000000000      # B
1060 1 2 0.000000000      61.106752493     37.440000000     0.000000000      # N
1061 1 1 0.000000000      63.600905656     34.560000000     0.000000000      # B
1062 1 2 0.000000000      62.353829075     35.280000000     0.000000000      # N
1063 1 1 0.000000000      62.353829075     36.720000000     0.000000000      # B
1064 1 2 0.000000000      63.600905656     37.440000000     0.000000000      # N
1065 1 1 0.000000000      66.095058819     34.560000000     0.000000000      # B
1066 1 2 0.000000000      64.847982238     35.280000000     0.000000000      # N
1067 1 1 0.000000000      64.847982238     36.720000000     0.000000000      # B
1068 1 2 0.000000000      66.095058819     37.440000000     0.000000000      # N
1069 1 1 0.000000000      68.589211982     34.560000000     0.000000000      # B
1070 1 2 0.000000000      67.342135401     35.280000000     0.000000000      # N
1071 1 1 0.000000000      67.342135401     36.720000000     0.000000000      # B
1072 1 2 0.000000000      68.589211982     37.440000000     0.000000000      # N
1073 1 1 0.000000000      71.083365145     34.560000000     0.000000000      # B
1074 1 2 0.000000000      69.836288564     35.280000000     0.000000000      # N
1075 1 1 0.000000000      69.836288564     36.720000000     0.000000000      # B
1076 1 2 0.000000000      71.083365145     37.440000000     0.000000000      # N
1077 1 1 0.000000000      73.577518308     34.560000000     0.000000000      # B
1078 1 2 0.000000000      72.330441727     35.280000000     0.000000000      # N
1079 1 1 0.000000000      72.330441727     36.720000000     0.000000000      # B
1080 1 2 0.000000000      73.577518308     37.440000000     0.000000000      # N
1081 1 1 0.000000000      1.247076581      38.880000000     0.000000000      # B
1082 1 2 0.000000000      0.000000000      39.600000000     0.000000000      # N
1083 1 1 0.000000000      0.000000000      41.040000000     0.000000000      # B
1084 1 2 0.000000000      1.247076581      41.760000000     0.000000000      # N
1085 1 1 0.000000000      3.741229744      38.880000000     0.000000000      # B
1086 1 2 0.000000000      2.494153163      39.600000000     0.000000000      # N
1087 1 1 0.000000000      2.494153163      41.040000000     0.000000000      # B
1088 1 2 0.000000000      3.741229744      41.760000000     0.000000000      # N
1089 1 1 0.000000000      6.235382907      38.880000000     0.000000000      # B
1090 1 2 0.000000000      4.988306326      39.600000000     0.000000000      # N
1091 1 1 0.000000000      4.988306326      41.040000000     0.000000000      # B
1092 1 2 0.000000000      6.235382907      41.760000000     0.000000000      # N
1093 1 1 0.000000000      8.729536070      38.880000000     0.000000000      # B
1094 1 2 0.000000000      7.482459489      39.600000000     0.000000000      # N
1095 1 1 0.000000000      7.482459489      41.040000000     0.000000000      # B
1096 1 2 0.000000000      8.729536070      41.760000000     0.000000000      # N
1097 1 1 0.000000000      11.223689233     38.880000000     0.000000000      # B
1098 1 2 0.000000000      9.976612652      39.600000000     0.000000000      # N
1099 1 1 0.000000000      9.976612652      41.040000000     0.000000000      # B
1100 1 2 0.000000000      11.223689233     41.760000000     0.000000000      # N
1101 1 1 0.000000000      13.717842396     38.880000000     0.000000000      # B
1102 1 2 0.000000000      12.470765815     39.600000000     0.000000000      # N
1103 1 1 0.000000000      12.470765815     41.040000000     0.000000000      # B
1104 1 2 0.000000000      13.717842396     41.760000000     0.000000000      # N
1105 1 1 0.000000000      16.211995559     38.880000000     0.000000000      # B
1106 1 2 0.000000000      14.964918978     39.600000000     0.000000000      # N
1107 1 1 0.000000000      14.964918978     41.040000000     0.000000000      # B
1108 1 2 0.000000000      16.211995559     41.760000000     0.000000000      # N
1109 1 1 0.000000000      18.706148722     38.880000000     0.000000000      # B
1110 1 2 0.000000000      17.459072141     39.600000000     0.000000000      # N
1111 1 1 0.000000000      17.459072141     41.040000000     0.000000000      # B
1112 1 2 0.000000000      18.706148722     41.760000000     0.000000000      # N
1113 1 1 0.000000000      21.200301885     38.880000000     0.000000000      # B
1114 1 2 0.000000000      19.953225304     39.600000000     0.000000000      # N
1115 1 1 0.000000000      19.953225304     41.040000000     0.000000000      # B
1116 1 2 0.000000000      21.200301885     41.760000000     0.000000000      # N
1117 1 1 0.000000000      23.694455048     38.880000000     0.000000000      # B
1118 1 2 0.000000000      22.447378467     39.600000000     0.000000000      # N
1119 1 1 0.000000000      22.447378467     41.040000000     0.000000000      # B
1120 1 2 0.000000000      23.694455048     41.760000000     0.000000000      # N
1121 1 1 0.000000000      26.188608211     38.880000000     0.000000000      # B
1122 1 2 0.000000000      24.941531630     39.600000000     0.000000000      # N
1123 1 1 0.000000000      24.941531630     41.040000000     0.000000000      # B
1124 1 2 0.000000000      26.188608211     41.760000000     0.000000000      # N
1125 1 1 0.000000000      28.682761374     38.880000000     0.000000000      # B
1126 1 2 0.000000000      27.435684793     39.600000000     0.000000000      # N
1127 1 1 0.000000000      27.435684793     41.040000000     0.000000000      # B
1128 1 2 0.000000000      28.682761374     41.760000000     0.000000000      # N
1129 1 1 0.000000000      31.176914537     38.880000000     0.000000000      # B
1130 1 2 0.000000000      29.929837956     39.600000000     0.000000000      # N
1131 1 1 0.000000000      29.929837956     41.040000000     0.000000000      # B
1132 1 2 0.000000000      31.176914537     41.760000000     0.000000000      # N
1133 1 1 0.000000000      33.671067700     38.880000000     0.000000000      # B
1134 1 2 0.000000000      32.423991119     39.600000000     0.000000000      # N
1135 1 1 0.000000000      32.423991119     41.040000000     0.000000000      # B
1136 1 2 0.000000000      33.671067700     41.760000000     0.000000000      # N
1137 1 1 0.000000000      36.165220863     38.880000000     0.000000000      # B
1138 1 2 0.000000000      34.918144282     39.600000000     0.000000000      # N
1139 1 1 0.000000000      34.918144282     41.040000000     0.000000000      # B
1140 1 2 0.000000000      36.165220863     41.760000000     0.000000000      # N
1141 1 1 0.000000000      38.659374026     38.880000000     0.000000000      # B
1142 1 2 0.000000000      37.412297445     39.600000000     0.000000000      # N
1143 1 1 0.000000000      37.412297445     41.040000000     0.000000000      # B
1144 1 2 0.000000000      38.659374026     41.760000000     0.000000000      # N
1145 1 1 0.000000000      41.153527189     38.880000000     0.000000000      # B
1146 1 2 0.000000000      39.906450608     39.600000000     0.000000000      # N
1147 1 1 0.000000000      39.906450608     41.040000000     0.000000000      # B
1148 1 2 0.000000000      41.153527189     41.760000000     0.000000000      # N
1149 1 1 0.000000000      43.647680352     38.880000000     0.000000000      # B
1150 1 2 0.000000000      42.400603771     39.600000000     0.000000000      # N
1151 1 1 0.000000000      42.400603771     41.040000000     0.000000000      # B
1152 1 2 0.000000000      43.647680352     41.760000000     0.000000000      # N
1153 1 1 0.000000000      46.141833515     38.880000000     0.000000000      # B
1154 1 2 0.000000000      44.894756934     39.600000000     0.000000000      # N
1155 1 1 0.000000000      44.894756934     41.040000000     0.000000000      # B
1156 1 2 0.000000000      46.141833515     41.760000000     0.000000000      # N
1157 1 1 0.000000000      48.635986678     38.880000000     0.000000000      # B
1158 1 2 0.000000000      47.388910097     39.600000000     0.000000000      # N
1159 1 1 0.000000000      47.388910097     41.040000000     0.000000000      # B
1160 1 2 0.000000000      48.635986678     41.760000000     0.000000000      # N
1161 1 1 0.000000000      51.130139841     38.880000000     0.000000000      # B
1162 1 2 0.000000000      49.883063260     39.600000000     0.000000000      # N
1163 1 1 0.000000000      49.883063260     41.040000000     0.000000000      # B
1164 1 2 0.000000000      51.130139841     41.760000000     0.000000000      # N
1165 1 1 0.000000000      53.624293004     38.880000000     0.000000000      # B
1166 1 2 0.000000000      52.377216423     39.600000000     0.000000000      # N
1167 1 1 0.000000000      52.377216423     41.040000000     0.000000000      # B
1168 1 2 0.000000000      53.624293004     41.760000000     0.000000000      # N
1169 1 1 0.000000000      56.118446167     38.880000000     0.000000000      # B
1170 1 2 0.000000000      54.871369586     39.600000000     0.000000000      # N
1171 1 1 0.000000000      54.871369586     41.040000000     0.000000000      # B
1172 1 2 0.000000000      56.118446167     41.760000000     0.000000000      # N
1173 1 1 0.000000000      58.612599330     38.880000000     0.000000000      # B
1174 1 2 0.000000000      57.365522749     39.600000000     0.000000000      # N
1175 1 1 0.000000000      57.365522749     41.040000000     0.000000000      # B
1176 1 2 0.000000000      58.612599330     41.760000000     0.000000000      # N
1177 1 1 0.000000000      61.106752493     38.880000000     0.000000000      # B
1178 1 2 0.000000000      59.859675912     39.600000000     0.000000000      # N
1179 1 1 0.000000000      59.859675912     41.040000000     0.000000000      # B
1180 1 2 0.000000000      61.106752493     41.760000000     0.000000000      # N
1181 1 1 0.000000000      63.600905656     38.880000000     0.000000000      # B
1182 1 2 0.000000000      62.353829075     39.600000000     0.000000000      # N
1183 1 1 0.000000000      62.353829075     41.040000000     0.000000000      # B
1184 1 2 0.000000000      63.600905656     41.760000000     0.000000000      # N
1185 1 1 0.000000000      66.095058819     38.880000000     0.000000000      # B
1186 1 2 0.000000000      64.847982238     39.600000000     0.000000000      # N
1187 1 1 0.000000000      64.847982238     41.040000000     0.000000000      # B
1188 1 2 0.000000000      66.095058819     41.760000000     0.000000000      # N
1189 1 1 0.000000000      68.589211982     38.880000000     0.000000000      # B
1190 1 2 0.000000000      67.342135401     39.600000000     0.000000000      # N
1191 1 1 0.000000000      67.342135401     41.040000000     0.000000000      # B
1192 1 2 0.000000000      68.589211982     41.760000000     0.000000000      # N
1193 1 1 0.000000000      71.083365145     38.880000000     0.000000000      # B
1194 1 2 0.000000000      69.836288564     39.600000000     0.000000000      # N
1195 1 1 0.000000000      69.836288564     41.040000000     0.000000000      # B
1196 1 2 0.000000000      71.083365145     41.760000000     0.000000000      # N
1197 1 1 0.000000000      73.577518308     38.880000000     0.000000000      # B
1198 1 2 0.000000000      72.330441727     39.600000000     0.000000000      # N
1199 1 1 0.000000000      72.330441727     41.040000000     0.000000000      # B
1200 1 2 0.000000000      73.577518308     41.760000000     0.000000000      # N
1201 1 1 0.000000000      1.247076581      43.200000000     0.000000000      # B
1202 1 2 0.000000000      0.000000000      43.920000000     0.000000000      # N
1203 1 1 0.000000000      0.000000000      45.360000000     0.000000000      # B
1204 1 2 0.000000000      1.247076581      46.080000000     0.000000000      # N
1205 1 1 0.000000000      3.741229744      43.200000000     0.000000000      # B
1206 1 2 0.000000000      2.494153163      43.920000000     0.000000000      # N
1207 1 1 0.000000000      2.494153163      45.360000000     0.000000000      # B
1208 1 2 0.000000000      3.741229744      46.080000000     0.000000000      # N
1209 1 1 0.000000000      6.235382907      43.200000000     0.000000000      # B
1210 1 2 0.000000000      4.988306326      43.920000000     0.000000000      # N
1211 1 1 0.000000000      4.988306326      45.360000000     0.000000000      # B
1212 1 2 0.000000000      6.235382907      46.080000000     0.000000000      # N
1213 1 1 0.000000000      8.729536070      43.200000000     0.000000000      # B
1214 1 2 0.000000000      7.482459489      43.920000000     0.000000000      # N
1215 1 1 0.000000000      7.482459489      45.360000000     0.000000000      # B
1216 1 2 0.000000000      8.729536070      46.080000000     0.000000000      # N
1217 1 1 0.000000000      11.223689233     43.200000000     0.000000000      # B
1218 1 2 0.000000000      9.976612652      43.920000000     0.000000000      # N
1219 1 1 0.000000000      9.976612652      45.360000000     0.000000000      # B
1220 1 2 0.000000000      11.223689233     46.080000000     0.000000000      # N
1221 1 1 0.000000000      13.717842396     43.200000000     0.000000000      # B
1222 1 2 0.000000000      12.470765815     43.920000000     0.000000000      # N
1223 1 1 0.000000000      12.470765815     45.360000000     0.000000000      # B
1224 1 2 0.000000000      13.717842396     46.080000000     0.000000000      # N
1225 1 1 0.000000000      16.211995559     43.200000000     0.000000000      # B
1226 1 2 0.000000000      14.964918978     43.920000000     0.000000000      # N
1227 1 1 0.000000000      14.964918978     45.360000000     0.000000000      # B
1228 1 2 0.000000000      16.211995559     46.080000000     0.000000000      # N
1229 1 1 0.000000000      18.706148722     43.200000000     0.000000000      # B
1230 1 2 0.000000000      17.459072141     43.920000000     0.000000000      # N
1231 1 1 0.000000000      17.459072141     45.360000000     0.000000000      # B
1232 1 2 0.000000000      18.706148722     46.080000000     0.000000000      # N
1233 1 1 0.000000000      21.200301885     43.200000000     0.000000000      # B
1234 1 2 0.000000000      19.953225304     43.920000000     0.000000000      # N
1235 1 1 0.000000000      19.953225304     45.360000000     0.000000000      # B
1236 1 2 0.000000000      21.200301885     46.080000000     0.000000000      # N
1237 1 1 0.000000000      23.694455048     43.200000000     0.000000000      # B
1238 1 2 0.000000000      22.447378467     43.920000000     0.000000000      # N
1239 1 1 0.000000000      22.447378467     45.360000000     0.000000000      # B
1240 1 2 0.000000000      23.694455048     46.080000000     0.000000000      # N
1241 1 1 0.000000000      26.188608211     43.200000000     0.000000000      # B
1242 1 2 0.000000000      24.941531630     43.920000000     0.000000000      # N
1243 1 1 0.000000000      24.941531630     45.360000000     0.000000000      # B
1244 1 2 0.000000000      26.188608211     46.080000000     0.000000000      # N
1245 1 1 0.000000000      28.682761374     43.200000000     0.000000000      # B
1246 1 2 0.000000000      27.435684793     43.920000000     0.000000000      # N
1247 1 1 0.000000000      27.435684793     45.360000000     0.000000000      # B
1248 1 2 0.000000000      28.682761374     46.080000000     0.000000000      # N
1249 1 1 0.000000000      31.176914537     43.200000000     0.000000000      # B
1250 1 2 0.000000000      29.929837956     43.920000000     0.000000000      # N
1251 1 1 0.000000000      29.929837956     45.360000000     0.000000000      # B
1252 1 2 0.000000000      31.176914537     46.080000000     0.000000000      # N
1253 1 1 0.000000000      33.671067700     43.200000000     0.000000000      # B
1254 1 2 0.000000000      32.423991119     43.920000000     0.000000000      # N
1255 1 1 0.000000000      32.423991119     45.360000000     0.000000000      # B
1256 1 2 0.000000000      33.671067700     46.080000000     0.000000000      # N
1257 1 1 0.000000000      36.165220863     43.200000000     0.000000000      # B
1258 1 2 0.000000000      34.918144282     43.920000000     0.000000000      # N
1259 1 1 0.000000000      34.918144282     45.360000000     0.000000000      # B
1260 1 2 0.000000000      36.165220863     46.080000000     0.000000000      # N
1261 1 1 0.000000000      38.659374026     43.200000000     0.000000000      # B
1262 1 2 0.000000000      37.412297445     43.920000000     0.000000000      # N
1263 1 1 0.000000000      37.412297445     45.360000000     0.000000000      # B
1264 1 2 0.000000000      38.659374026     46.080000000     0.000000000      # N
1265 1 1 0.000000000      41.153527189     43.200000000     0.000000000      # B
1266 1 2 0.000000000      39.906450608     43.920000000     0.000000000      # N
1267 1 1 0.000000000      39.906450608     45.360000000     0.000000000      # B
1268 1 2 0.000000000      41.153527189     46.080000000     0.000000000      # N
1269 1 1 0.000000000      43.647680352     43.200000000     0.000000000      # B
1270 1 2 0.000000000      42.400603771     43.920000000     0.000000000      # N
1271 1 1 0.000000000      42.400603771     45.360000000     0.000000000      # B
1272 1 2 0.000000000      43.647680352     46.080000000     0.000000000      # N
1273 1 1 0.000000000      46.141833515     43.200000000     0.000000000      # B
1274 1 2 0.000000000      44.894756934     43.920000000     0.000000000      # N
1275 1 1 0.000000000      44.894756934     45.360000000     0.000000000      # B
1276 1 2 0.000000000      46.141833515     46.080000000     0.000000000      # N
1277 1 1 0.000000000      48.635986678     43.200000000     0.000000000      # B
1278 1 2 0.000000000      47.388910097     43.920000000     0.000000000      # N
1279 1 1 0.000000000      47.388910097     45.360000000     0.000000000      # B
1280 1 2 0.000000000      48.635986678     46.080000000     0.000000000      # N
1281 1 1 0.000000000      51.130139841     43.200000000     0.000000000      # B
1282 1 2 0.000000000      49.883063260     43.920000000     0.000000000      # N
1283 1 1 0.000000000      49.883063260     45.360000000     0.000000000      # B
1284 1 2 0.000000000      51.130139841     46.080000000     0.000000000      # N
1285 1 1 0.000000000      53.624293004     43.200000000     0.000000000      # B
1286 1 2 0.000000000      52.377216423     43.920000000     0.000000000      # N
1287 1 1 0.000000000      52.377216423     45.360000000     0.000000000      # B
1288 1 2 0.000000000      53.624293004     46.080000000     0.000000000      # N
1289 1 1 0.000000000      56.118446167     43.200000000     0.000000000      # B
1290 1 2 0.000000000      54.871369586     43.920000000     0.000000000      # N
1291 1 1 0.000000000      54.871369586     45.360000000     0.000000000      # B
1292 1 2 0.000000000      56.118446167     46.080000000     0.000000000      # N
1293 1 1 0.000000000      58.612599330     43.200000000     0.000000000      # B
1294 1 2 0.000000000      57.365522749     43.920000000     0.000000000      # N
1295 1 1 0.000000000      57.365522749     45.360000000     0.000000000      # B
1296 1 2 0.000000000      58.612599330     46.080000000     0.000000000      # N
1297 1 1 0.000000000      61.106752493     43.200000000     0.000000000      # B
1298 1 2 0.000000000      59.859675912     43.920000000     0.000000000      # N
1299 1 1 0.000000000      59.859675912     45.360000000     0.000000000      # B
1300 1 2 0.000000000      61.106752493     46.080000000     0.000000000      # N
1301 1 1 0.000000000      63.600905656     43.200000000     0.000000000      # B
1302 1 2 0.000000000      62.353829075     43.920000000     0.000000000      # N
1303 1 1 0.000000000      62.353829075     45.360000000     0.000000000      # B
1304 1 2 0.000000000      63.600905656     46.080000000     0.000000000      # N
1305 1 1 0.000000000      66.095058819     43.200000000     0.000000000      # B
1306 1 2 0.000000000      64.847982238     43.920000000     0.000000000      # N
1307 1 1 0.000000000      64.847982238     45.360000000     0.000000000      # B
1308 1 2 0.000000000      66.095058819     46.080000000     0.000000000      # N
1309 1 1 0.000000000      68.589211982     43.200000000     0.000000000      # B
1310 1 2 0.000000000      67.342135401     43.920000000     0.000000000      # N
1311 1 1 0.000000000      67.342135401     45.360000000     0.000000000      # B
1312 1 2 0.000000000      68.589211982     46.080000000     0.000000000      # N
1313 1 1 0.000000000      71.083365145     43.200000000     0.000000000      # B
1314 1 2 0.000000000      69.836288564     43.920000000     0.000000000      # N
1315 1 1 0.000000000      69.836288564     45.360000000     0.000000000      # B
1316 1 2 0.000000000      71.083365145     46.080000000     0.000000000      # N
1317 1 1 0.000000000      73.577518308     43.200000000     0.000000000      # B
1318 1 2 0.000000000      72.330441727     43.920000000     0.000000000      # N
1319 1 1 0.000000000      72.330441727     45.360000000     0.000000000      # B
1320 1 2 0.000000000      73.577518308     46.080000000     0.000000000      # N
1321 1 1 0.000000000      1.247076581      47.520000000     0.000000000      # B
1322 1 2 0.000000000      0.000000000      48.240000000     0.000000000      # N
1323 1 1 0.000000000      0.000000000      49.680000000     0.000000000      # B
1324 1 2 0.000000000      1.247076581      50.400000000     0.000000000      # N
1325 1 1 0.000000000      3.741229744      47.520000000     0.000000000      # B
1326 1 2 0.000000000      2.494153163      48.240000000     0.000000000      # N
1327 1 1 0.000000000      2.494153163      49.680000000     0.000000000      # B
1328 1 2 0.000000000      3.741229744      50.400000000     0.000000000      # N
1329 1 1 0.000000000      6.235382907      47.520000000     0.000000000      # B
1330 1 2 0.000000000      4.988306326      48.240000000     0.000000000      # N
1331 1 1 0.000000000      4.988306326      49.680000000     0.000000000      # B
1332 1 2 0.000000000      6.235382907      50.400000000     0.000000000      # N
1333 1 1 0.000000000      8.729536070      47.520000000     0.000000000      # B
1334 1 2 0.000000000      7.482459489      48.240000000     0.000000000      # N
1335 1 1 0.000000000      7.482459489      49.680000000     0.000000000      # B
1336 1 2 0.000000000      8.729536070      50.400000000     0.000000000      # N
1337 1 1 0.000000000      11.223689233     47.520000000     0.000000000      # B
1338 1 2 0.000000000      9.976612652      48.240000000     0.000000000      # N
1339 1 1 0.000000000      9.976612652      49.680000000     0.000000000      # B
1340 1 2 0.000000000      11.223689233     50.400000000     0.000000000      # N
1341 1 1 0.000000000      13.717842396     47.520000000     0.000000000      # B
1342 1 2 0.000000000      12.470765815     48.240000000     0.000000000      # N
1343 1 1 0.000000000      12.470765815     49.680000000     0.000000000      # B
1344 1 2 0.000000000      13.717842396     50.400000000     0.000000000      # N
1345 1 1 0.000000000      16.211995559     47.520000000     0.000000000      # B
1346 1 2 0.000000000      14.964918978     48.240000000     0.000000000      # N
1347 1 1 0.000000000      14.964918978     49.680000000     0.000000000      # B
1348 1 2 0.000000000      16.211995559     50.400000000     0.000000000      # N
1349 1 1 0.000000000      18.706148722     47.520000000     0.000000000      # B
1350 1 2 0.000000000      17.459072141     48.240000000     0.000000000      # N
1351 1 1 0.000000000      17.459072141     49.680000000     0.000000000      # B
1352 1 2 0.000000000      18.706148722     50.400000000     0.000000000      # N
1353 1 1 0.000000000      21.200301885     47.520000000     0.000000000      # B
1354 1 2 0.000000000      19.953225304     48.240000000     0.000000000      # N
1355 1 1 0.000000000      19.953225304     49.680000000     0.000000000      # B
1356 1 2 0.000000000      21.200301885     50.400000000     0.000000000      # N
1357 1 1 0.000000000      23.694455048     47.520000000     0.000000000      # B
1358 1 2 0.000000000      22.447378467     48.240000000     0.000000000      # N
1359 1 1 0.000000000      22.447378467     49.680000000     0.000000000      # B
1360 1 2 0.000000000      23.694455048     50.400000000     0.000000000      # N
1361 1 1 0.000000000      26.188608211     47.520000000     0.000000000      # B
1362 1 2 0.000000000      24.941531630     48.240000000     0.000000000      # N
1363 1 1 0.000000000      24.941531630     49.680000000     0.000000000      # B
1364 1 2 0.000000000      26.188608211     50.400000000     0.000000000      # N
1365 1 1 0.000000000      28.682761374     47.520000000     0.000000000      # B
1366 1 2 0.000000000      27.435684793     48.240000000     0.000000000      # N
1367 1 1 0.000000000      27.435684793     49.680000000     0.000000000      # B
1368 1 2 0.000000000      28.682761374     50.400000000     0.000000000      # N
1369 1 1 0.000000000      31.176914537     47.520000000     0.000000000      # B
1370 1 2 0.000000000      29.929837956     48.240000000     0.000000000      # N
1371 1 1 0.000000000      29.929837956     49.680000000     0.000000000      # B
1372 1 2 0.000000000      31.176914537     50.400000000     0.000000000      # N
1373 1 1 0.000000000      33.671067700     47.520000000     0.000000000      # B
1374 1 2 0.000000000      32.423991119     48.240000000     0.000000000      # N
1375 1 1 0.000000000      32.423991119     49.680000000     0.000000000      # B
1376 1 2 0.000000000      33.671067700     50.400000000     0.000000000      # N
1377 1 1 0.000000000      36.165220863     47.520000000     0.000000000      # B
1378 1 2 0.000000000      34.918144282     48.240000000     0.000000000      # N
1379 1 1 0.000000000      34.918144282     49.680000000     0.000000000      # B
1380 1 2 0.000000000      36.165220863     50.400000000     0.000000000      # N
1381 1 1 0.000000000      38.659374026     47.520000000     0.000000000      # B
1382 1 2 0.000000000      37.412297445     48.240000000     0.000000000      # N
1383 1 1 0.000000000      37.412297445     49.680000000     0.000000000      # B
1384 1 2 0.000000000      38.659374026     50.400000000     0.000000000      # N
1385 1 1 0.000000000      41.153527189     47.520000000     0.000000000      # B
1386 1 2 0.000000000      39.906450608     48.240000000     0.000000000      # N
1387 1 1 0.000000000      39.906450608     49.680000000     0.000000000      # B
1388 1 2 0.000000000      41.153527189     50.400000000     0.000000000      # N
1389 1 1 0.000000000      43.647680352     47.520000000     0.000000000      # B
1390 1 2 0.000000000      42.400603771     48.240000000     0.000000000      # N
1391 1 1 0.000000000      42.400603771     49.680000000     0.000000000      # B
1392 1 2 0.000000000      43.647680352     50.400000000     0.000000000      # N
1393 1 1 0.000000000      46.141833515     47.520000000     0.000000000      # B
1394 1 2 0.000000000      44.894756934     48.240000000     0.000000000      # N
1395 1 1 0.000000000      44.894756934     49.680000000     0.000000000      # B
1396 1 2 0.000000000      46.141833515     50.400000000     0.000000000      # N
1397 1 1 0.000000000      48.635986678     47.520000000     0.000000000      # B
1398 1 2 0.000000000      47.388910097     48.240000000     0.000000000      # N
1399 1 1 0.000000000      47.388910097     49.680000000     0.000000000      # B
1400 1 2 0.000000000      48.635986678     50.400000000     0.000000000      # N
1401 1 1 0.000000000      51.130139841     47.520000000     0.000000000      # B
1402 1 2 0.000000000      49.883063260     48.240000000     0.000000000      # N
1403 1 1 0.000000000      49.883063260     49.680000000     0.000000000      # B
1404 1 2 0.000000000      51.130139841     50.400000000     0.000000000      # N
1405 1 1 0.000000000      53.624293004     47.520000000     0.000000000      # B
1406 1 2 0.000000000      52.377216423     48.240000000     0.000000000      # N
1407 1 1 0.000000000      52.377216423     49.680000000     0.000000000      # B
1408 1 2 0.000000000      53.624293004     50.400000000     0.000000000      # N
1409 1 1 0.000000000      56.118446167     47.520000000     0.000000000      # B
1410 1 2 0.000000000      54.871369586     48.240000000     0.000000000      # N
1411 1 1 0.000000000      54.871369586     49.680000000     0.000000000      # B
1412 1 2 0.000000000      56.118446167     50.400000000     0.000000000      # N
1413 1 1 0.000000000      58.612599330     47.520000000     0.000000000      # B
1414 1 2 0.000000000      57.365522749     48.240000000     0.000000000      # N
1415 1 1 0.000000000      57.365522749     49.680000000     0.000000000      # B
1416 1 2 0.000000000      58.612599330     50.400000000     0.000000000      # N
1417 1 1 0.000000000      61.106752493     47.520000000     0.000000000      # B
1418 1 2 0.000000000      59.859675912     48.240000000     0.000000000      # N
1419 1 1 0.000000000      59.859675912     49.680000000     0.000000000      # B
1420 1 2 0.000000000      61.106752493     50.400000000     0.000000000      # N
1421 1 1 0.000000000      63.600905656     47.520000000     0.000000000      # B
1422 1 2 0.000000000      62.353829075     48.240000000     0.000000000      # N
1423 1 1 0.000000000      62.353829075     49.680000000     0.000000000      # B
1424 1 2 0.000000000      63.600905656     50.400000000     0.000000000      # N
1425 1 1 0.000000000      66.095058819     47.520000000     0.000000000      # B
1426 1 2 0.000000000      64.847982238     48.240000000     0.000000000      # N
1427 1 1 0.000000000      64.847982238     49.680000000     0.000000000      # B
1428 1 2 0.000000000      66.095058819     50.400000000     0.000000000      # N
1429 1 1 0.000000000      68.589211982     47.520000000     0.000000000      # B
1430 1 2 0.000000000      67.342135401     48.240000000     0.000000000      # N
1431 1 1 0.000000000      67.342135401     49.680000000     0.000000000      # B
1432 1 2 0.000000000      68.589211982     50.400000000     0.000000000      # N
1433 1 1 0.000000000      71.083365145     47.520000000     0.000000000      # B
1434 1 2 0.000000000      69.836288564     48.240000000     0.000000000      # N
1435 1 1 0.000000000      69.836288564     49.680000000     0.000000000      # B
1436 1 2 0.000000000      71.083365145     50.400000000     0.000000000      # N
1437 1 1 0.000000000      73.577518308     47.520000000     0.000000000      # B
1438 1 2 0.000000000      72.330441727     48.240000000     0.000000000      # N
1439 1 1 0.000000000      72.330441727     49.680000000     0.000000000      # B
1440 1 2 0.000000000      73.577518308     50.400000000     0.000000000      # N
1441 1 1 0.000000000      1.247076581      51.840000000     0.000000000      # B
1442 1 2 0.000000000      0.000000000      52.560000000     0.000000000      # N
1443 1 1 0.000000000      0.000000000      54.000000000     0.000000000      # B
1444 1 2 0.000000000      1.247076581      54.720000000     0.000000000      # N
1445 1 1 0.000000000      3.741229744      51.840000000     0.000000000      # B
1446 1 2 0.000000000      2.494153163      52.560000000     0.000000000      # N
1447 1 1 0.000000000      2.494153163      54.000000000     0.000000000      # B
1448 1 2 0.000000000      3.741229744      54.720000000     0.000000000      # N
1449 1 1 0.000000000      6.235382907      51.840000000     0.000000000      # B
1450 1 2 0.000000000      4.988306326      52.560000000     0.000000000      # N
1451 1 1 0.000000000      4.988306326      54.000000000     0.000000000      # B
1452 1 2 0.000000000      6.235382907      54.720000000     0.000000000      # N
1453 1 1 0.000000000      8.729536070      51.840000000     0.000000000      # B
1454 1 2 0.000000000      7.482459489      52.560000000     0.000000000      # N
1455 1 1 0.000000000      7.482459489      54.000000000     0.000000000      # B
1456 1 2 0.000000000      8.729536070      54.720000000     0.000000000      # N
1457 1 1 0.000000000      11.223689233     51.840000000     0.000000000      # B
1458 1 2 0.000000000      9.976612652      52.560000000     0.000000000      # N
1459 1 1 0.000000000      9.976612652      54.000000000     0.000000000      # B
1460 1 2 0.000000000      11.223689233     54.720000000     0.000000000      # N
1461 1 1 0.000000000      13.717842396     51.840000000     0.000000000      # B
1462 1 2 0.000000000      12.470765815     52.560000000     0.000000000      # N
1463 1 1 0.000000000      12.470765815     54.000000000     0.000000000      # B
1464 1 2 0.000000000      13.717842396     54.720000000     0.000000000      # N
1465 1 1 0.000000000      16.211995559     51.840000000     0.000000000      # B
1466 1 2 0.000000000      14.964918978     52.560000000     0.000000000      # N
1467 1 1 0.000000000      14.964918978     54.000000000     0.000000000      # B
1468 1 2 0.000000000      16.211995559     54.720000000     0.000000000      # N
1469 1 1 0.000000000      18.706148722     51.840000000     0.000000000      # B
1470 1 2 0.000000000      17.459072141     52.560000000     0.000000000      # N
1471 1 1 0.000000000      17.459072141     54.000000000     0.000000000      # B
1472 1 2 0.000000000      18.706148722     54.720000000     0.000000000      # N
1473 1 1 0.000000000      21.200301885     51.840000000     0.000000000      # B
1474 1 2 0.000000000      19.953225304     52.560000000     0.000000000      # N
1475 1 1 0.000000000      19.953225304     54.000000000     0.000000000      # B
1476 1 2 0.000000000      21.200301885     54.720000000     0.000000000      # N
1477 1 1 0.000000000      23.694455048     51.840000000     0.000000000      # B
1478 1 2 0.000000000      22.447378467     52.560000000     0.000000000      # N
1479 1 1 0.000000000      22.447378467     54.000000000     0.000000000      # B
1480 1 2 0.000000000      23.694455048     54.720000000     0.000000000      # N
1481 1 1 0.000000000      26.188608211     51.840000000     0.000000000      # B
1482 1 2 0.000000000      24.941531630     52.560000000     0.000000000      # N
1483 1 1 0.000000000      24.941531630     54.000000000     0.000000000      # B
1484 1 2 0.000000000      26.188608211     54.720000000     0.000000000      # N
1485 1 1 0.000000000      28.682761374     51.840000000     0.000000000      # B
1486 1 2 0.000000000      27.435684793     52.560000000     0.000000000      # N
1487 1 1 0.000000000      27.435684793     54.000000000     0.000000000      # B
1488 1 2 0.000000000      28.682761374     54.720000000     0.000000000      # N
1489 1 1 0.000000000      31.176914537     51.840000000     0.000000000      # B
1490 1 2 0.000000000      29.929837956     52.560000000     0.000000000      # N
1491 1 1 0.000000000      29.929837956     54.000000000     0.000000000      # B
1492 1 2 0.000000000      31.176914537     54.720000000     0.000000000      # N
1493 1 1 0.000000000      33.671067700     51.840000000     0.000000000      # B
1494 1 2 0.000000000      32.423991119     52.560000000     0.000000000      # N
1495 1 1 0.000000000      32.423991119     54.000000000     0.000000000      # B
1496 1 2 0.000000000      33.671067700     54.720000000     0.000000000      # N
1497 1 1 0.000000000      36.165220863     51.840000000     0.000000000      # B
1498 1 2 0.000000000      34.918144282     52.560000000     0.000000000      # N
1499 1 1 0.000000000      34.918144282     54.000000000     0.000000000      # B
1500 1 2 0.000000000      36.165220863     54.720000000     0.000000000      # N
1501 1 1 0.000000000      38.659374026     51.840000000     0.000000000      # B
1502 1 2 0.000000000      37.412297445     52.560000000     0.000000000      # N
1503 1 1 0.000000000      37.412297445     54.000000000     0.000000000      # B
1504 1 2 0.000000000      38.659374026     54.720000000     0.000000000      # N
1505 1 1 0.000000000      41.153527189     51.840000000     0.000000000      # B
1506 1 2 0.000000000      39.906450608     52.560000000     0.000000000      # N
1507 1 1 0.000000000      39.906450608     54.000000000     0.000000000      # B
1508 1 2 0.000000000      41.153527189     54.720000000     0.000000000      # N
1509 1 1 0.000000000      43.647680352     51.840000000     0.000000000      # B
1510 1 2 0.000000000      42.400603771     52.560000000     0.000000000      # N
1511 1 1 0.000000000      42.400603771     54.000000000     0.000000000      # B
1512 1 2 0.000000000      43.647680352     54.720000000     0.000000000      # N
1513 1 1 0.000000000      46.141833515     51.840000000     0.000000000      # B
1514 1 2 0.000000000      44.894756934     52.560000000     0.000000000      # N
1515 1 1 0.000000000      44.894756934     54.000000000     0.000000000      # B
1516 1 2 0.000000000      46.141833515     54.720000000     0.000000000      # N
1517 1 1 0.000000000      48.635986678     51.840000000     0.000000000      # B
1518 1 2 0.000000000      47.388910097     52.560000000     0.000000000      # N
1519 1 1 0.000000000      47.388910097     54.000000000     0.000000000      # B
1520 1 2 0.000000000      48.635986678     54.720000000     0.000000000      # N
1521 1 1 0.000000000      51.130139841     51.840000000     0.000000000      # B
1522 1 2 0.000000000      49.883063260     52.560000000     0.000000000      # N
1523 1 1 0.000000000      49.883063260     54.000000000     0.000000000      # B
1524 1 2 0.000000000      51.130139841     54.720000000     0.000000000      # N
1525 1 1 0.000000000      53.624293004     51.840000000     0.000000000      # B
1526 1 2 0.000000000      52.377216423     52.560000000     0.000000000      # N
1527 1 1 0.000000000      52.377216423     54.000000000     0.000000000      # B
1528 1 2 0.000000000      53.624293004     54.720000000     0.000000000      # N
1529 1 1 0.000000000      56.118446167     51.840000000     0.000000000      # B
1530 1 2 0.000000000      54.871369586     52.560000000     0.000000000      # N
1531 1 1 0.000000000      54.871369586     54.000000000     0.000000000      # B
1532 1 2 0.000000000      56.118446167     54.720000000     0.000000000      # N
1533 1 1 0.000000000      58.612599330     51.840000000     0.000000000      # B
1534 1 2 0.000000000      57.365522749     52.560000000     0.000000000      # N
1535 1 1 0.000000000      57.365522749     54.000000000     0.000000000      # B
1536 1 2 0.000000000      58.612599330     54.720000000     0.000000000      # N
1537 1 1 0.000000000      61.106752493     51.840000000     0.000000000      # B
1538 1 2 0.000000000      59.859675912     52.560000000     0.000000000      # N
1539 1 1 0.000000000      59.859675912     54.000000000     0.000000000      # B
1540 1 2 0.000000000      61.106752493     54.720000000     0.000000000      # N
1541 1 1 0.000000000      63.600905656     51.840000000     0.000000000      # B
1542 1 2 0.000000000      62.353829075     52.560000000     0.000000000      # N
1543 1 1 0.000000000      62.353829075     54.000000000     0.000000000      # B
1544 1 2 0.000000000      63.600905656     54.720000000     0.000000000      # N
1545 1 1 0.000000000      66.095058819     51.840000000     0.000000000      # B
1546 1 2 0.000000000      64.847982238     52.560000000     0.000000000      # N
1547 1 1 0.000000000      64.847982238     54.000000000     0.000000000      # B
1548 1 2 0.000000000      66.095058819     54.720000000     0.000000000      # N
1549 1 1 0.000000000      68.589211982     51.840000000     0.000000000      # B
1550 1 2 0.000000000      67.342135401     52.560000000     0.000000000      # N
1551 1 1 0.000000000      67.342135401     54.000000000     0.000000000      # B
1552 1 2 0.000000000      68.589211982     54.720000000     0.000000000      # N
1553 1 1 0.000000000      71.083365145     51.840000000     0.000000000      # B
1554 1 2 0.000000000      69.836288564     52.560000000     0.000000000      # N
1555 1 1 0.000000000      69.836288564     54.000000000     0.000000000      # B
1556 1 2 0.000000000      71.083365145     54.720000000     0.000000000      # N
1557 1 1 0.000000000      73.577518308     51.840000000     0.000000000      # B
1558 1 2 0.000000000      72.330441727     52.560000000     0.000000000      # N
1559 1 1 0.000000000      72.330441727     54.000000000     0.000000000      # B
1560 1 2 0.000000000      73.577518308     54.720000000     0.000000000      # N
1561 1 1 0.000000000      1.247076581      56.160000000     0.000000000      # B
1562 1 2 0.000000000      0.000000000      56.880000000     0.000000000      # N
1563 1 1 0.000000000      0.000000000      58.320000000     0.000000000      # B
1564 1 2 0.000000000      1.247076581      59.040000000     0.000000000      # N
1565 1 1 0.000000000      3.741229744      56.160000000     0.000000000      # B
1566 1 2 0.000000000      2.494153163      56.880000000     0.000000000      # N
1567 1 1 0.000000000      2.494153163      58.320000000     0.000000000      # B
1568 1 2 0.000000000      3.741229744      59.040000000     0.000000000      # N
1569 1 1 0.000000000      6.235382907      56.160000000     0.000000000      # B
1570 1 2 0.000000000      4.988306326      56.880000000     0.000000000      # N
1571 1 1 0.000000000      4.988306326      58.320000000     0.000000000      # B
1572 1 2 0.000000000      6.235382907      59.040000000     0.000000000      # N
1573 1 1 0.000000000      8.729536070      56.160000000     0.000000000      # B
1574 1 2 0.000000000      7.482459489      56.880000000     0.000000000      # N
1575 1 1 0.000000000      7.482459489      58.320000000     0.000000000      # B
1576 1 2 0.000000000      8.729536070      59.040000000     0.000000000      # N
1577 1 1 0.000000000      11.223689233     56.160000000     0.000000000      # B
1578 1 2 0.000000000      9.976612652      56.880000000     0.000000000      # N
1579 1 1 0.000000000      9.976612652      58.320000000     0.000000000      # B
1580 1 2 0.000000000      11.223689233     59.040000000     0.000000000      # N
1581 1 1 0.000000000      13.717842396     56.160000000     0.000000000      # B
1582 1 2 0.000000000      12.470765815     56.880000000     0.000000000      # N
1583 1 1 0.000000000      12.470765815     58.320000000     0.000000000      # B
1584 1 2 0.000000000      13.717842396     59.040000000     0.000000000      # N
1585 1 1 0.000000000      16.211995559     56.160000000     0.000000000      # B
1586 1 2 0.000000000      14.964918978     56.880000000     0.000000000      # N
1587 1 1 0.000000000      14.964918978     58.320000000     0.000000000      # B
1588 1 2 0.000000000      16.211995559     59.040000000     0.000000000      # N
1589 1 1 0.000000000      18.706148722     56.160000000     0.000000000      # B
1590 1 2 0.000000000      17.459072141     56.880000000     0.000000000      # N
1591 1 1 0.000000000      17.459072141     58.320000000     0.000000000      # B
1592 1 2 0.000000000      18.706148722     59.040000000     0.000000000      # N
1593 1 1 0.000000000      21.200301885     56.160000000     0.000000000      # B
1594 1 2 0.000000000      19.953225304     56.880000000     0.000000000      # N
1595 1 1 0.000000000      19.953225304     58.320000000     0.000000000      # B
1596 1 2 0.000000000      21.200301885     59.040000000     0.000000000      # N
1597 1 1 0.000000000      23.694455048     56.160000000     0.000000000      # B
1598 1 2 0.000000000      22.447378467     56.880000000     0.000000000      # N
1599 1 1 0.000000000      22.447378467     58.320000000     0.000000000      # B
1600 1 2 0.000000000      23.694455048     59.040000000     0.000000000      # N
1601 1 1 0.000000000      26.188608211     56.160000000     0.000000000      # B
1602 1 2 0.000000000      24.941531630     56.880000000     0.000000000      # N
1603 1 1 0.000000000      24.941531630     58.320000000     0.000000000      # B
1604 1 2 0.000000000      26.188608211     59.040000000     0.000000000      # N
1605 1 1 0.000000000      28.682761374     56.160000000     0.000000000      # B
1606 1 2 0.000000000      27.435684793     56.880000000     0.000000000      # N
1607 1 1 0.000000000      27.435684793     58.320000000     0.000000000      # B
1608 1 2 0.000000000      28.682761374     59.040000000     0.000000000      # N
1609 1 1 0.000000000      31.176914537     56.160000000     0.000000000      # B
1610 1 2 0.000000000      29.929837956     56.880000000     0.000000000      # N
1611 1 1 0.000000000      29.929837956     58.320000000     0.000000000      # B
1612 1 2 0.000000000      31.176914537     59.040000000     0.000000000      # N
1613 1 1 0.000000000      33.671067700     56.160000000     0.000000000      # B
1614 1 2 0.000000000      32.423991119     56.880000000     0.000000000      # N
1615 1 1 0.000000000      32.423991119     58.320000000     0.000000000      # B
1616 1 2 0.000000000      33.671067700     59.040000000     0.000000000      # N
1617 1 1 0.000000000      36.165220863     56.160000000     0.000000000      # B
1618 1 2 0.000000000      34.918144282     56.880000000     0.000000000      # N
1619 1 1 0.000000000      34.918144282     58.320000000     0.000000000      # B
1620 1 2 0.000000000      36.165220863     59.040000000     0.000000000      # N
1621 1 1 0.000000000      38.659374026     56.160000000     0.000000000      # B
1622 1 2 0.000000000      37.412297445     56.880000000     0.000000000      # N
1623 1 1 0.000000000      37.412297445     58.320000000     0.000000000      # B
1624 1 2 0.000000000      38.659374026     59.040000000     0.000000000      # N
1625 1 1 0.000000000      41.153527189     56.160000000     0.000000000      # B
1626 1 2 0.000000000      39.906450608     56.880000000     0.000000000      # N
1627 1 1 0.000000000      39.906450608     58.320000000     0.000000000      # B
1628 1 2 0.000000000      41.153527189     59.040000000     0.000000000      # N
1629 1 1 0.000000000      43.647680352     56.160000000     0.000000000      # B
1630 1 2 0.000000000      42.400603771     56.880000000     0.000000000      # N
1631 1 1 0.000000000      42.400603771     58.320000000     0.000000000      # B
1632 1 2 0.000000000      43.647680352     59.040000000     0.000000000      # N
1633 1 1 0.000000000      46.141833515     56.160000000     0.000000000      # B
1634 1 2 0.000000000      44.894756934     56.880000000     0.000000000      # N
1635 1 1 0.000000000      44.894756934     58.320000000     0.000000000      # B
1636 1 2 0.000000000      46.141833515     59.040000000     0.000000000      # N
1637 1 1 0.000000000      48.635986678     56.160000000     0.000000000      # B
1638 1 2 0.000000000      47.388910097     56.880000000     0.000000000      # N
1639 1 1 0.000000000      47.388910097     58.320000000     0.000000000      # B
1640 1 2 0.000000000      48.635986678     59.040000000     0.000000000      # N
1641 1 1 0.000000000      51.130139841     56.160000000     0.000000000      # B
1642 1 2 0.000000000      49.883063260     56.880000000     0.000000000      # N
1643 1 1 0.000000000      49.883063260     58.320000000     0.000000000      # B
1644 1 2 0.000000000      51.130139841     59.040000000     0.000000000      # N
1645 1 1 0.000000000      53.624293004     56.160000000     0.000000000      # B
1646 1 2 0.000000000      52.377216423     56.880000000     0.000000000      # N
1647 1 1 0.000000000      52.377216423     58.320000000     0.000000000      # B
1648 1 2 0.000000000      53.624293004     59.040000000     0.000000000      # N
1649 1 1 0.000000000      56.118446167     56.160000000     0.000000000      # B
1650 1 2 0.000000000      54.871369586     56.880000000     0.000000000      # N
1651 1 1 0.000000000      54.871369586     58.320000000     0.000000000      # B
1652 1 2 0.000000000      56.118446167     59.040000000     0.000000000      # N
1653 1 1 0.000000000      58.612599330     56.160000000     0.000000000      # B
1654 1 2 0.000000000      57.365522749     56.880000000     0.000000000      # N
1655 1 1 0.000000000      57.365522749     58.320000000     0.000000000      # B
1656 1 2 0.000000000      58.612599330     59.040000000     0.000000000      # N
1657 1 1 0.000000000      61.106752493     56.160000000     0.000000000      # B
1658 1 2 0.000000000      59.859675912     56.880000000     0.000000000      # N
1659 1 1 0.000000000      59.859675912     58.320000000     0.000000000      # B
1660 1 2 0.000000000      61.106752493     59.040000000     0.000000000      # N
1661 1 1 0.000000000      63.600905656     56.160000000     0.000000000      # B
1662 1 2 0.000000000      62.353829075     56.880000000     0.000000000      # N
1663 1 1 0.000000000      62.353829075     58.320000000     0.000000000      # B
1664 1 2 0.000000000      63.600905656     59.040000000     0.000000000      # N
1665 1 1 0.000000000      66.095058819     56.160000000     0.000000000      # B
1666 1 2 0.000000000      64.847982238     56.880000000     0.000000000      # N
1667 1 1 0.000000000      64.847982238     58.320000000     0.000000000      # B
1668 1 2 0.000000000      66.095058819     59.040000000     0.000000000      # N
1669 1 1 0.000000000      68.589211982     56.160000000     0.000000000      # B
1670 1 2 0.000000000      67.342135401     56.880000000     0.000000000      # N
1671 1 1 0.000000000      67.342135401     58.320000000     0.000000000      # B
1672 1 2 0.000000000      68.589211982     59.040000000     0.000000000      # N
1673 1 1 0.000000000      71.083365145     56.160000000     0.000000000      # B
1674 1 2 0.000000000      69.836288564     56.880000000     0.000000000      # N
1675 1 1 0.000000000      69.836288564     58.320000000     0.000000000      # B
1676 1 2 0.000000000      71.083365145     59.040000000     0.000000000      # N
1677 1 1 0.000000000      73.577518308     56.160000000     0.000000000      # B
1678 1 2 0.000000000      72.330441727     56.880000000     0.000000000      # N
1679 1 1 0.000000000      72.330441727     58.320000000     0.000000000      # B
1680 1 2 0.000000000      73.577518308     59.040000000     0.000000000      # N
1681 1 1 0.000000000      1.247076581      60.480000000     0.000000000      # B
1682 1 2 0.000000000      0.000000000      61.200000000     0.000000000      # N
1683 1 1 0.000000000      0.000000000      62.640000000     0.000000000      # B
1684 1 2 0.000000000      1.247076581      63.360000000     0.000000000      # N
1685 1 1 0.000000000      3.741229744      60.480000000     0.000000000      # B
1686 1 2 0.000000000      2.494153163      61.200000000     0.000000000      # N
1687 1 1 0.000000000      2.494153163      62.640000000     0.000000000      # B
1688 1 2 0.000000000      3.741229744      63.360000000     0.000000000      # N
1689 1 1 0.000000000      6.235382907      60.480000000     0.000000000      # B
1690 1 2 0.000000000      4.988306326      61.200000000     0.000000000      # N
1691 1 1 0.000000000      4.988306326      62.640000000     0.000000000      # B
1692 1 2 0.000000000      6.235382907      63.360000000     0.000000000      # N
1693 1 1 0.000000000      8.729536070      60.480000000     0.000000000      # B
1694 1 2 0.000000000      7.482459489      61.200000000     0.000000000      # N
1695 1 1 0.000000000      7.482459489      62.640000000     0.000000000      # B
1696 1 2 0.000000000      8.729536070      63.360000000     0.000000000      # N
1697 1 1 0.000000000      11.223689233     60.480000000     0.000000000      # B
1698 1 2 0.000000000      9.976612652      61.200000000     0.000000000      # N
1699 1 1 0.000000000      9.976612652      62.640000000     0.000000000      # B
1700 1 2 0.000000000      11.223689233     63.360000000     0.000000000      # N
1701 1 1 0.000000000      13.717842396     60.480000000     0.000000000      # B
1702 1 2 0.000000000      12.470765815     61.200000000     0.000000000      # N
1703 1 1 0.000000000      12.470765815     62.640000000     0.000000000      # B
1704 1 2 0.000000000      13.717842396     63.360000000     0.000000000      # N
1705 1 1 0.000000000      16.211995559     60.480000000     0.000000000      # B
1706 1 2 0.000000000      14.964918978     61.200000000     0.000000000      # N
1707 1 1 0.000000000      14.964918978     62.640000000     0.000000000      # B
1708 1 2 0.000000000      16.211995559     63.360000000     0.000000000      # N
1709 1 1 0.000000000      18.706148722     60.480000000     0.000000000      # B
1710 1 2 0.000000000      17.459072141     61.200000000     0.000000000      # N
1711 1 1 0.000000000      17.459072141     62.640000000     0.000000000      # B
1712 1 2 0.000000000      18.706148722     63.360000000     0.000000000      # N
1713 1 1 0.000000000      21.200301885     60.480000000     0.000000000      # B
1714 1 2 0.000000000      19.953225304     61.200000000     0.000000000      # N
1715 1 1 0.000000000      19.953225304     62.640000000     0.000000000      # B
1716 1 2 0.000000000      21.200301885     63.360000000     0.000000000      # N
1717 1 1 0.000000000      23.694455048     60.480000000     0.000000000      # B
1718 1 2 0.000000000      22.447378467     61.200000000     0.000000000      # N
1719 1 1 0.000000000      22.447378467     62.640000000     0.000000000      # B
1720 1 2 0.000000000      23.694455048     63.360000000     0.000000000      # N
1721 1 1 0.000000000      26.188608211     60.480000000     0.000000000      # B
1722 1 2 0.000000000      24.941531630     61.200000000     0.000000000      # N
1723 1 1 0.000000000      24.941531630     62.640000000     0.000000000      # B
1724 1 2 0.000000000      26.188608211     63.360000000     0.000000000      # N
1725 1 1 0.000000000      28.682761374     60.480000000     0.000000000      # B
1726 1 2 0.000000000      27.435684793     61.200000000     0.000000000      # N
1727 1 1 0.000000000      27.435684793     62.640000000     0.000000000      # B
1728 1 2 0.000000000      28.682761374     63.360000000     0.000000000      # N
1729 1 1 0.000000000      31.176914537     60.480000000     0.000000000      # B
1730 1 2 0.000000000      29.929837956     61.200000000     0.000000000      # N
1731 1 1 0.000000000      29.929837956     62.640000000     0.000000000      # B
1732 1 2 0.000000000      31.176914537     63.360000000     0.000000000      # N
1733 1 1 0.000000000      33.671067700     60.480000000     0.000000000      # B
1734 1 2 0.000000000      32.423991119     61.200000000     0.000000000      # N
1735 1 1 0.000000000      32.423991119     62.640000000     0.000000000      # B
1736 1 2 0.000000000      33.671067700     63.360000000     0.000000000      # N
1737 1 1 0.000000000      36.165220863     60.480000000     0.000000000      # B
1738 1 2 0.000000000      34.918144282     61.200000000     0.000000000      # N
1739 1 1 0.000000000      34.918144282     62.640000000     0.000000000      # B
1740 1 2 0.000000000      36.165220863     63.360000000     0.000000000      # N
1741 1 1 0.000000000      38.659374026     60.480000000     0.000000000      # B
1742 1 2 0.000000000      37.412297445     61.200000000     0.000000000      # N
1743 1 1 0.000000000      37.412297445     62.640000000     0.000000000      # B
1744 1 2 0.000000000      38.659374026     63.360000000     0.000000000      # N
1745 1 1 0.000000000      41.153527189     60.480000000     0.000000000      # B
1746 1 2 0.000000000      39.906450608     61.200000000     0.000000000      # N
1747 1 1 0.000000000      39.906450608     62.640000000     0.000000000      # B
1748 1 2 0.000000000      41.153527189     63.360000000     0.000000000      # N
1749 1 1 0.000000000      43.647680352     60.480000000     0.000000000      # B
1750 1 2 0.000000000      42.400603771     61.200000000     0.000000000      # N
1751 1 1 0.000000000      42.400603771     62.640000000     0.000000000      # B
1752 1 2 0.000000000      43.647680352     63.360000000     0.000000000      # N
1753 1 1 0.000000000      46.141833515     60.480000000     0.000000000      # B
1754 1 2 0.000000000      44.894756934     61.200000000     0.000000000      # N
1755 1 1 0.000000000      44.894756934     62.640000000     0.000000000      # B
1756 1 2 0.000000000      46.141833515     63.360000000     0.000000000      # N
1757 1 1 0.000000000      48.635986678     60.480000000     0.000000000      # B
1758 1 2 0.000000000      47.388910097     61.200000000     0.000000000      # N
1759 1 1 0.000000000      47.388910097     62.640000000     0.000000000      # B
1760 1 2 0.000000000      48.635986678     63.360000000     0.000000000      # N
1761 1 1 0.000000000      51.130139841     60.480000000     0.000000000      # B
1762 1 2 0.000000000      49.883063260     61.200000000     0.000000000      # N
1763 1 1 0.000000000      49.883063260     62.640000000     0.000000000      # B
1764 1 2 0.000000000      51.130139841     63.360000000     0.000000000      # N
1765 1 1 0.000000000      53.624293004     60.480000000     0.000000000      # B
1766 1 2 0.000000000      52.377216423     61.200000000     0.000000000      # N
1767 1 1 0.000000000      52.377216423     62.640000000     0.000000000      # B
1768 1 2 0.000000000      53.624293004     63.360000000     0.000000000      # N
1769 1 1 0.000000000      56.118446167     60.480000000     0.000000000      # B
1770 1 2 0.000000000      54.871369586     61.200000000     0.000000000      # N
1771 1 1 0.000000000      54.871369586     62.640000000     0.000000000      # B
1772 1 2 0.000000000      56.118446167     63.360000000     0.000000000      # N
1773 1 1 0.000000000      58.612599330     60.480000000     0.000000000      # B
1774 1 2 0.000000000      57.365522749     61.200000000     0.000000000      # N
1775 1 1 0.000000000      57.365522749     62.640000000     0.000000000      # B
1776 1 2 0.000000000      58.612599330     63.360000000     0.000000000      # N
1777 1 1 0.000000000      61.106752493     60.480000000     0.000000000      # B
1778 1 2 0.000000000      59.859675912     61.200000000     0.000000000      # N
1779 1 1 0.000000000      59.859675912     62.640000000     0.000000000      # B
1780 1 2 0.000000000      61.106752493     63.360000000     0.000000000      # N
1781 1 1 0.000000000      63.600905656     60.480000000     0.000000000      # B
1782 1 2 0.000000000      62.353829075     61.200000000     0.000000000      # N
1783 1 1 0.000000000      62.353829075     62.640000000     0.000000000      # B
1784 1 2 0.000000000      63.600905656     63.360000000     0.000000000      # N
1785 1 1 0.000000000      66.095058819     60.480000000     0.000000000      # B
1786 1 2 0.000000000      64.847982238     61.200000000     0.000000000      # N
1787 1 1 0.000000000      64.847982238     62.640000000     0.000000000      # B
1788 1 2 0.000000000      66.095058819     63.360000000     0.000000000      # N
1789 1 1 0.000000000      68.589211982     60.480000000     0.000000000      # B
1790 1 2 0.000000000      67.342135401     61.200000000     0.000000000      # N
1791 1 1 0.000000000      67.342135401     62.640000000     0.000000000      # B
1792 1 2 0.000000000      68.589211982     63.360000000     0.000000000      # N
1793 1 1 0.000000000      71.083365145     60.480000000     0.000000000      # B
1794 1 2 0.000000000      69.836288564     61.200000000     0.000000000      # N
1795 1 1 0.000000000      69.836288564     62.640000000     0.000000000      # B
1796 1 2 0.000000000      71.083365145     63.360000000     0.000000000      # N
1797 1 1 0.000000000      73.577518308     60.480000000     0.000000000      # B
1798 1 2 0.000000000      72.330441727     61.200000000     0.000000000      # N
1799 1 1 0.000000000      72.330441727     62.640000000     0.000000000      # B
1800 1 2 0.000000000      73.577518308     63.360000000     0.000000000      # N

Bonds

1 1 1 2 # B N
2 1 1 6 # B N
3 1 2 3 # B N
4 1 6 5 # B N
5 1 6 7 # B N
6 1 5 10 # B N
7 1 9 10 # B N
8 1 9 14 # B N
9 1 10 11 # B N
10 1 14 13 # B N
11 1 14 15 # B N
12 1 13 18 # B N
13 1 18 17 # B N
14 1 18 19 # B N
15 1 17 22 # B N
16 1 21 22 # B N
17 1 21 26 # B N
18 1 22 23 # B N
19 1 26 25 # B N
20 1 26 27 # B N
21 1 25 30 # B N
22 1 29 30 # B N
23 1 29 34 # B N
24 1 30 31 # B N
25 1 34 33 # B N
26 1 34 35 # B N
27 1 33 38 # B N
28 1 38 37 # B N
29 1 38 39 # B N
30 1 37 42 # B N
31 1 41 42 # B N
32 1 41 46 # B N
33 1 42 43 # B N
34 1 46 45 # B N
35 1 46 47 # B N
36 1 45 50 # B N
37 1 49 50 # B N
38 1 49 54 # B N
39 1 50 51 # B N
40 1 54 53 # B N
41 1 54 55 # B N
42 1 53 58 # B N
43 1 58 57 # B N
44 1 58 59 # B N
45 1 57 62 # B N
46 1 61 62 # B N
47 1 61 66 # B N
48 1 62 63 # B N
49 1 66 65 # B N
50 1 66 67 # B N
51 1 65 70 # B N
52 1 69 70 # B N
53 1 69 74 # B N
54 1 70 71 # B N
55 1 74 73 # B N
56 1 74 75 # B N
57 1 73 78 # B N
58 1 78 77 # B N
59 1 78 79 # B N
60 1 77 82 # B N
61 1 81 82 # B N
62 1 81 86 # B N
63 1 82 83 # B N
64 1 86 85 # B N
65 1 86 87 # B N
66 1 85 90 # B N
67 1 89 90 # B N
68 1 89 94 # B N
69 1 90 91 # B N
70 1 94 93 # B N
71 1 94 95 # B N
72 1 93 98 # B N
73 1 98 97 # B N
74 1 98 99 # B N
75 1 97 102 # B N
76 1 101 102 # B N
77 1 101 106 # B N
78 1 102 103 # B N
79 1 106 105 # B N
80 1 106 107 # B N
81 1 105 110 # B N
82 1 109 110 # B N
83 1 109 114 # B N
84 1 110 111 # B N
85 1 114 113 # B N
86 1 114 115 # B N
87 1 113 118 # B N
88 1 118 117 # B N
89 1 118 119 # B N
90 1 117 2 # B N
91 1 3 4 # B N
92 1 4 7 # B N
93 1 4 121 # B N
94 1 7 8 # B N
95 1 8 11 # B N
96 1 8 125 # B N
97 1 11 12 # B N
98 1 12 15 # B N
99 1 12 129 # B N
100 1 15 16 # B N
101 1 16 19 # B N
102 1 16 133 # B N
103 1 19 20 # B N
104 1 20 23 # B N
105 1 20 137 # B N
106 1 23 24 # B N
107 1 24 27 # B N
108 1 24 141 # B N
109 1 27 28 # B N
110 1 28 31 # B N
111 1 28 145 # B N
112 1 31 32 # B N
113 1 32 35 # B N
114 1 32 149 # B N
115 1 35 36 # B N
116 1 36 39 # B N
117 1 36 153 # B N
118 1 39 40 # B N
119 1 40 43 # B N
120 1 40 157 # B N
121 1 43 44 # B N
122 1 44 47 # B N
123 1 44 161 # B N
124 1 47 48 # B N
125 1 48 51 # B N
126 1 48 165 # B N
127 1 51 52 # B N
128 1 52 55 # B N
129 1 52 169 # B N
130 1 55 56 # B N
131 1 56 59 # B N
132 1 56 173 # B N
133 1 59 60 # B N
134 1 60 63 # B N
135 1 60 177 # B N
136 1 63 64 # B N
137 1 64 67 # B N
138 1 64 181 # B N
139 1 67 68 # B N
140 1 68 71 # B N
141 1 68 185 # B N
142 1 71 72 # B N
143 1 72 75 # B N
144 1 72 189 # B N
145 1 75 76 # B N
146 1 76 79 # B N
147 1 76 193 # B N
148 1 79 80 # B N
149 1 80 83 # B N
150 1 80 197 # B N
151 1 83 84 # B N
152 1 84 87 # B N
153 1 84 201 # B N
154 1 87 88 # B N
155 1 88 91 # B N
156 1 88 205 # B N
157 1 91 92 # B N
158 1 92 95 # B N
159 1 92 209 # B N
160 1 95 96 # B N
161 1 96 99 # B N
162 1 96 213 # B N
163 1 99 100 # B N
164 1 100 103 # B N
165 1 100 217 # B N
166 1 103 104 # B N
167 1 104 107 # B N
168 1 104 221 # B N
169 1 107 108 # B N
170 1 108 111 # B N
171 1 108 225 # B N
172 1 111 112 # B N
173 1 112 115 # B N
174 1 112 229 # B N
175 1 115 116 # B N
176 1 116 119 # B N
177 1 116 233 # B N
178 1 119 120 # B N
179 1 120 3 # B N
180 1 120 237 # B N
181 1 121 126 # B N
182 1 121 122 # B N
183 1 125 130 # B N
184 1 125 126 # B N
185 1 129 134 # B N
186 1 129 130 # B N
187 1 133 138 # B N
188 1 133 134 # B N
189 1 137 142 # B N
190 1 137 138 # B N
191 1 141 146 # B N
192 1 141 142 # B N
193 1 145 150 # B N
194 1 145 146 # B N
195 1 149 154 # B N
196 1 149 150 # B N
197 1 153 158 # B N
198 1 153 154 # B N
199 1 157 162 # B N
200 1 157 158 # B N
201 1 161 166 # B N
202 1 161 162 # B N
203 1 165 170 # B N
204 1 165 166 # B N
205 1 169 174 # B N
206 1 169 170 # B N
207 1 173 178 # B N
208 1 173 174 # B N
209 1 177 182 # B N
210 1 177 178 # B N
211 1 181 186 # B N
212 1 181 182 # B N
213 1 185 190 # B N
214 1 185 186 # B N
215 1 189 194 # B N
216 1 189 190 # B N
217 1 193 198 # B N
218 1 193 194 # B N
219 1 197 202 # B N
220 1 197 198 # B N
221 1 201 206 # B N
222 1 201 202 # B N
223 1 205 210 # B N
224 1 205 206 # B N
225 1 209 214 # B N
226 1 209 210 # B N
227 1 213 218 # B N
228 1 213 214 # B N
229 1 217 222 # B N
230 1 217 218 # B N
231 1 221 226 # B N
232 1 221 222 # B N
233 1 225 230 # B N
234 1 225 226 # B N
235 1 229 234 # B N
236 1 229 230 # B N
237 1 233 238 # B N
238 1 233 234 # B N
239 1 237 122 # B N
240 1 237 238 # B N
241 1 122 123 # B N
242 1 126 127 # B N
243 1 130 131 # B N
244 1 134 135 # B N
245 1 138 139 # B N
246 1 142 143 # B N
247 1 146 147 # B N
248 1 150 151 # B N
249 1 154 155 # B N
250 1 158 159 # B N
251 1 162 163 # B N
252 1 166 167 # B N
253 1 170 171 # B N
254 1 174 175 # B N
255 1 178 179 # B N
256 1 182 183 # B N
257 1 186 187 # B N
258 1 190 191 # B N
259 1 194 195 # B N
260 1 198 199 # B N
261 1 202 203 # B N
262 1 206 207 # B N
263 1 210 211 # B N
264 1 214 215 # B N
265 1 218 219 # B N
266 1 222 223 # B N
267 1 226 227 # B N
268 1 230 231 # B N
269 1 234 235 # B N
270 1 238 239 # B N
271 1 123 124 # B N
272 1 124 127 # B N
273 1 124 241 # B N
274 1 127 128 # B N
275 1 128 131 # B N
276 1 128 245 # B N
277 1 131 132 # B N
278 1 132 135 # B N
279 1 132 249 # B N
280 1 135 136 # B N
281 1 136 139 # B N
282 1 136 253 # B N
283 1 139 140 # B N
284 1 140 143 # B N
285 1 140 257 # B N
286 1 143 144 # B N
287 1 144 147 # B N
288 1 144 261 # B N
289 1 147 148 # B N
290 1 148 151 # B N
291 1 148 265 # B N
292 1 151 152 # B N
293 1 152 155 # B N
294 1 152 269 # B N
295 1 155 156 # B N
296 1 156 159 # B N
297 1 156 273 # B N
298 1 159 160 # B N
299 1 160 163 # B N
300 1 160 277 # B N
301 1 163 164 # B N
302 1 164 167 # B N
303 1 164 281 # B N
304 1 167 168 # B N
305 1 168 171 # B N
306 1 168 285 # B N
307 1 171 172 # B N
308 1 172 175 # B N
309 1 172 289 # B N
310 1 175 176 # B N
311 1 176 179 # B N
312 1 176 293 # B N
313 1 179 180 # B N
314 1 180 183 # B N
315 1 180 297 # B N
316 1 183 184 # B N
317 1 184 187 # B N
318 1 184 301 # B N
319 1 187 188 # B N
320 1 188 191 # B N
321 1 188 305 # B N
322 1 191 192 # B N
323 1 192 195 # B N
324 1 192 309 # B N
325 1 195 196 # B N
326 1 196 199 # B N
327 1 196 313 # B N
328 1 199 200 # B N
329 1 200 203 # B N
330 1 200 317 # B N
331 1 203 204 # B N
332 1 204 207 # B N
333 1 204 321 # B N
334 1 207 208 # B N
335 1 208 211 # B N
336 1 208 325 # B N
337 1 211 212 # B N
338 1 212 215 # B N
339 1 212 329 # B N
340 1 215 216 # B N
341 1 216 219 # B N
342 1 216 333 # B N
343 1 219 220 # B N
344 1 220 223 # B N
345 1 220 337 # B N
346 1 223 224 # B N
347 1 224 227 # B N
348 1 224 341 # B N
349 1 227 228 # B N
350 1 228 231 # B N
351 1 228 345 # B N
352 1 231 232 # B N
353 1 232 235 # B N
354 1 232 349 # B N
355 1 235 236 # B N
356 1 236 239 # B N
357 1 236 353 # B N
358 1 239 240 # B N
359 1 240 123 # B N
360 1 240 357 # B N
361 1 241 246 # B N
362 1 241 242 # B N
363 1 245 250 # B N
364 1 245 246 # B N
365 1 249 254 # B N
366 1 249 250 # B N
367 1 253 258 # B N
368 1 253 254 # B N
369 1 257 262 # B N
370 1 257 258 # B N
371 1 261 266 # B N
372 1 261 262 # B N
373 1 265 270 # B N
374 1 265 266 # B N
375 1 269 274 # B N
376 1 269 270 # B N
377 1 273 278 # B N
378 1 273 274 # B N
379 1 277 282 # B N
380 1 277 278 # B N
381 1 281 286 # B N
382 1 281 282 # B N
383 1 285 290 # B N
384 1 285 286 # B N
385 1 289 294 # B N
386 1 289 290 # B N
387 1 293 298 # B N
388 1 293 294 # B N
389 1 297 302 # B N
390 1 297 298 # B N
391 1 301 306 # B N
392 1 301 302 # B N
393 1 305 310 # B N
394 1 305 306 # B N
395 1 309 314 # B N
396 1 309 310 # B N
397 1 313 318 # B N
398 1 313 314 # B N
399 1 317 322 # B N
400 1 317 318 # B N
401 1 321 326 # B N
402 1 321 322 # B N
403 1 325 330 # B N
404 1 325 326 # B N
405 1 329 334 # B N
406 1 329 330 # B N
407 1 333 338 # B N
408 1 333 334 # B N
409 1 337 342 # B N
410 1 337 338 # B N
411 1 341 346 # B N
412 1 341 342 # B N
413 1 345 350 # B N
414 1 345 346 # B N
415 1 349 354 # B N
416 1 349 350 # B N
417 1 353 358 # B N
418 1 353 354 # B N
419 1 357 242 # B N
420 1 357 358 # B N
421 1 242 243 # B N
422 1 243 244 # B N
423 1 243 360 # B N
424 1 246 247 # B N
425 1 247 248 # B N
426 1 247 244 # B N
427 1 250 251 # B N
428 1 251 252 # B N
429 1 251 248 # B N
430 1 254 255 # B N
431 1 255 256 # B N
432 1 255 252 # B N
433 1 258 259 # B N
434 1 259 260 # B N
435 1 259 256 # B N
436 1 262 263 # B N
437 1 263 264 # B N
438 1 263 260 # B N
439 1 266 267 # B N
440 1 267 268 # B N
441 1 267 264 # B N
442 1 270 271 # B N
443 1 271 272 # B N
444 1 271 268 # B N
445 1 274 275 # B N
446 1 275 276 # B N
447 1 275 272 # B N
448 1 278 279 # B N
449 1 279 280 # B N
450 1 279 276 # B N
451 1 282 283 # B N
452 1 283 284 # B N
453 1 283 280 # B N
454 1 286 287 # B N
455 1 287 288 # B N
456 1 287 284 # B N
457 1 290 291 # B N
458 1 291 292 # B N
459 1 291 288 # B N
460 1 294 295 # B N
461 1 295 296 # B N
462 1 295 292 # B N
463 1 298 299 # B N
464 1 299 300 # B N
465 1 299 296 # B N
466 1 302 303 # B N
467 1 303 304 # B N
468 1 303 300 # B N
469 1 306 307 # B N
470 1 307 308 # B N
471 1 307 304 # B N
472 1 310 311 # B N
473 1 311 312 # B N
474 1 311 308 # B N
475 1 314 315 # B N
476 1 315 316 # B N
477 1 315 312 # B N
478 1 318 319 # B N
479 1 319 320 # B N
480 1 319 316 # B N
481 1 322 323 # B N
482 1 323 324 # B N
483 1 323 320 # B N
484 1 326 327 # B N
485 1 327 328 # B N
486 1 327 324 # B N
487 1 330 331 # B N
488 1 331 332 # B N
489 1 331 328 # B N
490 1 334 335 # B N
491 1 335 336 # B N
492 1 335 332 # B N
493 1 338 339 # B N
494 1 339 340 # B N
495 1 339 336 # B N
496 1 342 343 # B N
497 1 343 344 # B N
498 1 343 340 # B N
499 1 346 347 # B N
500 1 347 348 # B N
501 1 347 344 # B N
502 1 350 351 # B N
503 1 351 352 # B N
504 1 351 348 # B N
505 1 354 355 # B N
506 1 355 356 # B N
507 1 355 352 # B N
508 1 358 359 # B N
509 1 359 360 # B N
510 1 359 356 # B N
511 1 244 361 # B N
512 1 248 365 # B N
513 1 252 369 # B N
514 1 256 373 # B N
515 1 260 377 # B N
516 1 264 381 # B N
517 1 268 385 # B N
518 1 272 389 # B N
519 1 276 393 # B N
520 1 280 397 # B N
521 1 284 401 # B N
522 1 288 405 # B N
523 1 292 409 # B N
524 1 296 413 # B N
525 1 300 417 # B N
526 1 304 421 # B N
527 1 308 425 # B N
528 1 312 429 # B N
529 1 316 433 # B N
530 1 320 437 # B N
531 1 324 441 # B N
532 1 328 445 # B N
533 1 332 449 # B N
534 1 336 453 # B N
535 1 340 457 # B N
536 1 344 461 # B N
537 1 348 465 # B N
538 1 352 469 # B N
539 1 356 473 # B N
540 1 360 477 # B N
541 1 361 362 # B N
542 1 361 366 # B N
543 1 362 363 # B N
544 1 366 365 # B N
545 1 366 367 # B N
546 1 365 370 # B N
547 1 369 370 # B N
548 1 369 374 # B N
549 1 370 371 # B N
550 1 374 373 # B N
551 1 374 375 # B N
552 1 373 378 # B N
553 1 378 377 # B N
554 1 378 379 # B N
555 1 377 382 # B N
556 1 381 382 # B N
557 1 381 386 # B N
558 1 382 383 # B N
559 1 386 385 # B N
560 1 386 387 # B N
561 1 385 390 # B N
562 1 389 390 # B N
563 1 389 394 # B N
564 1 390 391 # B N
565 1 394 393 # B N
566 1 394 395 # B N
567 1 393 398 # B N
568 1 398 397 # B N
569 1 398 399 # B N
570 1 397 402 # B N
571 1 401 402 # B N
572 1 401 406 # B N
573 1 402 403 # B N
574 1 406 405 # B N
575 1 406 407 # B N
576 1 405 410 # B N
577 1 409 410 # B N
578 1 409 414 # B N
579 1 410 411 # B N
580 1 414 413 # B N
581 1 414 415 # B N
582 1 413 418 # B N
583 1 418 417 # B N
584 1 418 419 # B N
585 1 417 422 # B N
586 1 421 422 # B N
587 1 421 426 # B N
588 1 422 423 # B N
589 1 426 425 # B N
590 1 426 427 # B N
591 1 425 430 # B N
592 1 429 430 # B N
593 1 429 434 # B N
594 1 430 431 # B N
595 1 434 433 # B N
596 1 434 435 # B N
597 1 433 438 # B N
598 1 438 437 # B N
599 1 438 439 # B N
600 1 437 442 # B N
601 1 441 442 # B N
602 1 441 446 # B N
603 1 442 443 # B N
604 1 446 445 # B N
605 1 446 447 # B N
606 1 445 450 # B N
607 1 449 450 # B N
608 1 449 454 # B N
609 1 450 451 # B N
610 1 454 453 # B N
611 1 454 455 # B N
612 1 453 458 # B N
613 1 458 457 # B N
614 1 458 459 # B N
615 1 457 462 # B N
616 1 461 462 # B N
617 1 461 466 # B N
618 1 462 463 # B N
619 1 466 465 # B N
620 1 466 467 # B N
621 1 465 470 # B N
622 1 469 470 # B N
623 1 469 474 # B N
624 1 470 471 # B N
625 1 474 473 # B N
626 1 474 475 # B N
627 1 473 478 # B N
628 1 478 477 # B N
629 1 478 479 # B N
630 1 477 362 # B N
631 1 363 364 # B N
632 1 363 480 # B N
633 1 367 368 # B N
634 1 367 364 # B N
635 1 371 372 # B N
636 1 371 368 # B N
637 1 375 376 # B N
638 1 375 372 # B N
639 1 379 380 # B N
640 1 379 376 # B N
641 1 383 384 # B N
642 1 383 380 # B N
643 1 387 388 # B N
644 1 387 384 # B N
645 1 391 392 # B N
646 1 391 388 # B N
647 1 395 396 # B N
648 1 395 392 # B N
649 1 399 400 # B N
650 1 399 396 # B N
651 1 403 404 # B N
652 1 403 400 # B N
653 1 407 408 # B N
654 1 407 404 # B N
655 1 411 412 # B N
656 1 411 408 # B N
657 1 415 416 # B N
658 1 415 412 # B N
659 1 419 420 # B N
660 1 419 416 # B N
661 1 423 424 # B N
662 1 423 420 # B N
663 1 427 428 # B N
664 1 427 424 # B N
665 1 431 432 # B N
666 1 431 428 # B N
667 1 435 436 # B N
668 1 435 432 # B N
669 1 439 440 # B N
670 1 439 436 # B N
671 1 443 444 # B N
672 1 443 440 # B N
673 1 447 448 # B N
674 1 447 444 # B N
675 1 451 452 # B N
676 1 451 448 # B N
677 1 455 456 # B N
678 1 455 452 # B N
679 1 459 460 # B N
680 1 459 456 # B N
681 1 463 464 # B N
682 1 463 460 # B N
683 1 467 468 # B N
684 1 467 464 # B N
685 1 471 472 # B N
686 1 471 468 # B N
687 1 475 476 # B N
688 1 475 472 # B N
689 1 479 480 # B N
690 1 479 476 # B N
691 1 364 481 # B N
692 1 368 485 # B N
693 1 372 489 # B N
694 1 376 493 # B N
695 1 380 497 # B N
696 1 384 501 # B N
697 1 388 505 # B N
698 1 392 509 # B N
699 1 396 513 # B N
700 1 400 517 # B N
701 1 404 521 # B N
702 1 408 525 # B N
703 1 412 529 # B N
704 1 416 533 # B N
705 1 420 537 # B N
706 1 424 541 # B N
707 1 428 545 # B N
708 1 432 549 # B N
709 1 436 553 # B N
710 1 440 557 # B N
711 1 444 561 # B N
712 1 448 565 # B N
713 1 452 569 # B N
714 1 456 573 # B N
715 1 460 577 # B N
716 1 464 581 # B N
717 1 468 585 # B N
718 1 472 589 # B N
719 1 476 593 # B N
720 1 480 597 # B N
721 1 481 482 # B N
722 1 481 486 # B N
723 1 482 483 # B N
724 1 486 485 # B N
725 1 486 487 # B N
726 1 485 490 # B N
727 1 489 490 # B N
728 1 489 494 # B N
729 1 490 491 # B N
730 1 494 493 # B N
731 1 494 495 # B N
732 1 493 498 # B N
733 1 498 497 # B N
734 1 498 499 # B N
735 1 497 502 # B N
736 1 501 502 # B N
737 1 501 506 # B N
738 1 502 503 # B N
739 1 506 505 # B N
740 1 506 507 # B N
741 1 505 510 # B N
742 1 509 510 # B N
743 1 509 514 # B N
744 1 510 511 # B N
745 1 514 513 # B N
746 1 514 515 # B N
747 1 513 518 # B N
748 1 518 517 # B N
749 1 518 519 # B N
750 1 517 522 # B N
751 1 521 522 # B N
752 1 521 526 # B N
753 1 522 523 # B N
754 1 526 525 # B N
755 1 526 527 # B N
756 1 525 530 # B N
757 1 529 530 # B N
758 1 529 534 # B N
759 1 530 531 # B N
760 1 534 533 # B N
761 1 534 535 # B N
762 1 533 538 # B N
763 1 538 537 # B N
764 1 538 539 # B N
765 1 537 542 # B N
766 1 541 542 # B N
767 1 541 546 # B N
768 1 542 543 # B N
769 1 546 545 # B N
770 1 546 547 # B N
771 1 545 550 # B N
772 1 549 550 # B N
773 1 549 554 # B N
774 1 550 551 # B N
775 1 554 553 # B N
776 1 554 555 # B N
777 1 553 558 # B N
778 1 558 557 # B N
779 1 558 559 # B N
780 1 557 562 # B N
781 1 561 562 # B N
782 1 561 566 # B N
783 1 562 563 # B N
784 1 566 565 # B N
785 1 566 567 # B N
786 1 565 570 # B N
787 1 569 570 # B N
788 1 569 574 # B N
789 1 570 571 # B N
790 1 574 573 # B N
791 1 574 575 # B N
792 1 573 578 # B N
793 1 578 577 # B N
794 1 578 579 # B N
795 1 577 582 # B N
796 1 581 582 # B N
797 1 581 586 # B N
798 1 582 583 # B N
799 1 586 585 # B N
800 1 586 587 # B N
801 1 585 590 # B N
802 1 589 590 # B N
803 1 589 594 # B N
804 1 590 591 # B N
805 1 594 593 # B N
806 1 594 595 # B N
807 1 593 598 # B N
808 1 598 597 # B N
809 1 598 599 # B N
810 1 597 482 # B N
811 1 483 484 # B N
812 1 483 600 # B N
813 1 487 488 # B N
814 1 487 484 # B N
815 1 491 492 # B N
816 1 491 488 # B N
817 1 495 496 # B N
818 1 495 492 # B N
819 1 499 500 # B N
820 1 499 496 # B N
821 1 503 504 # B N
822 1 503 500 # B N
823 1 507 508 # B N
824 1 507 504 # B N
825 1 511 512 # B N
826 1 511 508 # B N
827 1 515 516 # B N
828 1 515 512 # B N
829 1 519 520 # B N
830 1 519 516 # B N
831 1 523 524 # B N
832 1 523 520 # B N
833 1 527 528 # B N
834 1 527 524 # B N
835 1 531 532 # B N
836 1 531 528 # B N
837 1 535 536 # B N
838 1 535 532 # B N
839 1 539 540 # B N
840 1 539 536 # B N
841 1 543 544 # B N
842 1 543 540 # B N
843 1 547 548 # B N
844 1 547 544 # B N
845 1 551 552 # B N
846 1 551 548 # B N
847 1 555 556 # B N
848 1 555 552 # B N
849 1 559 560 # B N
850 1 559 556 # B N
851 1 563 564 # B N
852 1 563 560 # B N
853 1 567 568 # B N
854 1 567 564 # B N
855 1 571 572 # B N
856 1 571 568 # B N
857 1 575 576 # B N
858 1 575 572 # B N
859 1 579 580 # B N
860 1 579 576 # B N
861 1 583 584 # B N
862 1 583 580 # B N
863 1 587 588 # B N
864 1 587 584 # B N
865 1 591 592 # B N
866 1 591 588 # B N
867 1 595 596 # B N
868 1 595 592 # B N
869 1 599 600 # B N
870 1 599 596 # B N
871 1 484 601 # B N
872 1 601 606 # B N
873 1 601 602 # B N
874 1 488 605 # B N
875 1 605 610 # B N
876 1 605 606 # B N
877 1 492 609 # B N
878 1 609 614 # B N
879 1 609 610 # B N
880 1 496 613 # B N
881 1 613 618 # B N
882 1 613 614 # B N
883 1 500 617 # B N
884 1 617 622 # B N
885 1 617 618 # B N
886 1 504 621 # B N
887 1 621 626 # B N
888 1 621 622 # B N
889 1 508 625 # B N
890 1 625 630 # B N
891 1 625 626 # B N
892 1 512 629 # B N
893 1 629 634 # B N
894 1 629 630 # B N
895 1 516 633 # B N
896 1 633 638 # B N
897 1 633 634 # B N
898 1 520 637 # B N
899 1 637 642 # B N
900 1 637 638 # B N
901 1 524 641 # B N
902 1 641 646 # B N
903 1 641 642 # B N
904 1 528 645 # B N
905 1 645 650 # B N
906 1 645 646 # B N
907 1 532 649 # B N
908 1 649 654 # B N
909 1 649 650 # B N
910 1 536 653 # B N
911 1 653 658 # B N
912 1 653 654 # B N
913 1 540 657 # B N
914 1 657 662 # B N
915 1 657 658 # B N
916 1 544 661 # B N
917 1 661 666 # B N
918 1 661 662 # B N
919 1 548 665 # B N
920 1 665 670 # B N
921 1 665 666 # B N
922 1 552 669 # B N
923 1 669 674 # B N
924 1 669 670 # B N
925 1 556 673 # B N
926 1 673 678 # B N
927 1 673 674 # B N
928 1 560 677 # B N
929 1 677 682 # B N
930 1 677 678 # B N
931 1 564 681 # B N
932 1 681 686 # B N
933 1 681 682 # B N
934 1 568 685 # B N
935 1 685 690 # B N
936 1 685 686 # B N
937 1 572 689 # B N
938 1 689 694 # B N
939 1 689 690 # B N
940 1 576 693 # B N
941 1 693 698 # B N
942 1 693 694 # B N
943 1 580 697 # B N
944 1 697 702 # B N
945 1 697 698 # B N
946 1 584 701 # B N
947 1 701 706 # B N
948 1 701 702 # B N
949 1 588 705 # B N
950 1 705 710 # B N
951 1 705 706 # B N
952 1 592 709 # B N
953 1 709 714 # B N
954 1 709 710 # B N
955 1 596 713 # B N
956 1 713 718 # B N
957 1 713 714 # B N
958 1 600 717 # B N
959 1 717 602 # B N
960 1 717 718 # B N
961 1 602 603 # B N
962 1 606 607 # B N
963 1 610 611 # B N
964 1 614 615 # B N
965 1 618 619 # B N
966 1 622 623 # B N
967 1 626 627 # B N
968 1 630 631 # B N
969 1 634 635 # B N
970 1 638 639 # B N
971 1 642 643 # B N
972 1 646 647 # B N
973 1 650 651 # B N
974 1 654 655 # B N
975 1 658 659 # B N
976 1 662 663 # B N
977 1 666 667 # B N
978 1 670 671 # B N
979 1 674 675 # B N
980 1 678 679 # B N
981 1 682 683 # B N
982 1 686 687 # B N
983 1 690 691 # B N
984 1 694 695 # B N
985 1 698 699 # B N
986 1 702 703 # B N
987 1 706 707 # B N
988 1 710 711 # B N
989 1 714 715 # B N
990 1 718 719 # B N
991 1 603 604 # B N
992 1 604 607 # B N
993 1 604 721 # B N
994 1 607 608 # B N
995 1 608 611 # B N
996 1 608 725 # B N
997 1 611 612 # B N
998 1 612 615 # B N
999 1 612 729 # B N
1000 1 615 616 # B N
1001 1 616 619 # B N
1002 1 616 733 # B N
1003 1 619 620 # B N
1004 1 620 623 # B N
1005 1 620 737 # B N
1006 1 623 624 # B N
1007 1 624 627 # B N
1008 1 624 741 # B N
1009 1 627 628 # B N
1010 1 628 631 # B N
1011 1 628 745 # B N
1012 1 631 632 # B N
1013 1 632 635 # B N
1014 1 632 749 # B N
1015 1 635 636 # B N
1016 1 636 639 # B N
1017 1 636 753 # B N
1018 1 639 640 # B N
1019 1 640 643 # B N
1020 1 640 757 # B N
1021 1 643 644 # B N
1022 1 644 647 # B N
1023 1 644 761 # B N
1024 1 647 648 # B N
1025 1 648 651 # B N
1026 1 648 765 # B N
1027 1 651 652 # B N
1028 1 652 655 # B N
1029 1 652 769 # B N
1030 1 655 656 # B N
1031 1 656 659 # B N
1032 1 656 773 # B N
1033 1 659 660 # B N
1034 1 660 663 # B N
1035 1 660 777 # B N
1036 1 663 664 # B N
1037 1 664 667 # B N
1038 1 664 781 # B N
1039 1 667 668 # B N
1040 1 668 671 # B N
1041 1 668 785 # B N
1042 1 671 672 # B N
1043 1 672 675 # B N
1044 1 672 789 # B N
1045 1 675 676 # B N
1046 1 676 679 # B N
1047 1 676 793 # B N
1048 1 679 680 # B N
1049 1 680 683 # B N
1050 1 680 797 # B N
1051 1 683 684 # B N
1052 1 684 687 # B N
1053 1 684 801 # B N
1054 1 687 688 # B N
1055 1 688 691 # B N
1056 1 688 805 # B N
1057 1 691 692 # B N
1058 1 692 695 # B N
1059 1 692 809 # B N
1060 1 695 696 # B N
1061 1 696 699 # B N
1062 1 696 813 # B N
1063 1 699 700 # B N
1064 1 700 703 # B N
1065 1 700 817 # B N
1066 1 703 704 # B N
1067 1 704 707 # B N
1068 1 704 821 # B N
1069 1 707 708 # B N
1070 1 708 711 # B N
1071 1 708 825 # B N
1072 1 711 712 # B N
1073 1 712 715 # B N
1074 1 712 829 # B N
1075 1 715 716 # B N
1076 1 716 719 # B N
1077 1 716 833 # B N
1078 1 719 720 # B N
1079 1 720 603 # B N
1080 1 720 837 # B N
1081 1 721 726 # B N
1082 1 721 722 # B N
1083 1 725 730 # B N
1084 1 725 726 # B N
1085 1 729 734 # B N
1086 1 729 730 # B N
1087 1 733 738 # B N
1088 1 733 734 # B N
1089 1 737 742 # B N
1090 1 737 738 # B N
1091 1 741 746 # B N
1092 1 741 742 # B N
1093 1 745 750 # B N
1094 1 745 746 # B N
1095 1 749 754 # B N
1096 1 749 750 # B N
1097 1 753 758 # B N
1098 1 753 754 # B N
1099 1 757 762 # B N
1100 1 757 758 # B N
1101 1 761 766 # B N
1102 1 761 762 # B N
1103 1 765 770 # B N
1104 1 765 766 # B N
1105 1 769 774 # B N
1106 1 769 770 # B N
1107 1 773 778 # B N
1108 1 773 774 # B N
1109 1 777 782 # B N
1110 1 777 778 # B N
1111 1 781 786 # B N
1112 1 781 782 # B N
1113 1 785 790 # B N
1114 1 785 786 # B N
1115 1 789 794 # B N
1116 1 789 790 # B N
1117 1 793 798 # B N
1118 1 793 794 # B N
1119 1 797 802 # B N
1120 1 797 798 # B N
1121 1 801 806 # B N
1122 1 801 802 # B N
1123 1 805 810 # B N
1124 1 805 806 # B N
1125 1 809 814 # B N
1126 1 809 810 # B N
1127 1 813 818 # B N
1128 1 813 814 # B N
1129 1 817 822 # B N
1130 1 817 818 # B N
1131 1 821 826 # B N
1132 1 821 822 # B N
1133 1 825 830 # B N
1134 1 825 826 # B N
1135 1 829 834 # B N
1136 1 829 830 # B N
1137 1 833 838 # B N
1138 1 833 834 # B N
1139 1 837 722 # B N
1140 1 837 838 # B N
1141 1 722 723 # B N
1142 1 726 727 # B N
1143 1 730 731 # B N
1144 1 734 735 # B N
1145 1 738 739 # B N
1146 1 742 743 # B N
1147 1 746 747 # B N
1148 1 750 751 # B N
1149 1 754 755 # B N
1150 1 758 759 # B N
1151 1 762 763 # B N
1152 1 766 767 # B N
1153 1 770 771 # B N
1154 1 774 775 # B N
1155 1 778 779 # B N
1156 1 782 783 # B N
1157 1 786 787 # B N
1158 1 790 791 # B N
1159 1 794 795 # B N
1160 1 798 799 # B N
1161 1 802 803 # B N
1162 1 806 807 # B N
1163 1 810 811 # B N
1164 1 814 815 # B N
1165 1 818 819 # B N
1166 1 822 823 # B N
1167 1 826 827 # B N
1168 1 830 831 # B N
1169 1 834 835 # B N
1170 1 838 839 # B N
1171 1 723 724 # B N
1172 1 724 727 # B N
1173 1 724 841 # B N
1174 1 727 728 # B N
1175 1 728 731 # B N
1176 1 728 845 # B N
1177 1 731 732 # B N
1178 1 732 735 # B N
1179 1 732 849 # B N
1180 1 735 736 # B N
1181 1 736 739 # B N
1182 1 736 853 # B N
1183 1 739 740 # B N
1184 1 740 743 # B N
1185 1 740 857 # B N
1186 1 743 744 # B N
1187 1 744 747 # B N
1188 1 744 861 # B N
1189 1 747 748 # B N
1190 1 748 751 # B N
1191 1 748 865 # B N
1192 1 751 752 # B N
1193 1 752 755 # B N
1194 1 752 869 # B N
1195 1 755 756 # B N
1196 1 756 759 # B N
1197 1 756 873 # B N
1198 1 759 760 # B N
1199 1 760 763 # B N
1200 1 760 877 # B N
1201 1 763 764 # B N
1202 1 764 767 # B N
1203 1 764 881 # B N
1204 1 767 768 # B N
1205 1 768 771 # B N
1206 1 768 885 # B N
1207 1 771 772 # B N
1208 1 772 775 # B N
1209 1 772 889 # B N
1210 1 775 776 # B N
1211 1 776 779 # B N
1212 1 776 893 # B N
1213 1 779 780 # B N
1214 1 780 783 # B N
1215 1 780 897 # B N
1216 1 783 784 # B N
1217 1 784 787 # B N
1218 1 784 901 # B N
1219 1 787 788 # B N
1220 1 788 791 # B N
1221 1 788 905 # B N
1222 1 791 792 # B N
1223 1 792 795 # B N
1224 1 792 909 # B N
1225 1 795 796 # B N
1226 1 796 799 # B N
1227 1 796 913 # B N
1228 1 799 800 # B N
1229 1 800 803 # B N
1230 1 800 917 # B N
1231 1 803 804 # B N
1232 1 804 807 # B N
1233 1 804 921 # B N
1234 1 807 808 # B N
1235 1 808 811 # B N
1236 1 808 925 # B N
1237 1 811 812 # B N
1238 1 812 815 # B N
1239 1 812 929 # B N
1240 1 815 816 # B N
1241 1 816 819 # B N
1242 1 816 933 # B N
1243 1 819 820 # B N
1244 1 820 823 # B N
1245 1 820 937 # B N
1246 1 823 824 # B N
1247 1 824 827 # B N
1248 1 824 941 # B N
1249 1 827 828 # B N
1250 1 828 831 # B N
1251 1 828 945 # B N
1252 1 831 832 # B N
1253 1 832 835 # B N
1254 1 832 949 # B N
1255 1 835 836 # B N
1256 1 836 839 # B N
1257 1 836 953 # B N
1258 1 839 840 # B N
1259 1 840 723 # B N
1260 1 840 957 # B N
1261 1 841 846 # B N
1262 1 841 842 # B N
1263 1 845 850 # B N
1264 1 845 846 # B N
1265 1 849 854 # B N
1266 1 849 850 # B N
1267 1 853 858 # B N
1268 1 853 854 # B N
1269 1 857 862 # B N
1270 1 857 858 # B N
1271 1 861 866 # B N
1272 1 861 862 # B N
1273 1 865 870 # B N
1274 1 865 866 # B N
1275 1 869 874 # B N
1276 1 869 870 # B N
1277 1 873 878 # B N
1278 1 873 874 # B N
1279 1 877 882 # B N
1280 1 877 878 # B N
1281 1 881 886 # B N
1282 1 881 882 # B N
1283 1 885 890 # B N
1284 1 885 886 # B N
1285 1 889 894 # B N
1286 1 889 890 # B N
1287 1 893 898 # B N
1288 1 893 894 # B N
1289 1 897 902 # B N
1290 1 897 898 # B N
1291 1 901 906 # B N
1292 1 901 902 # B N
1293 1 905 910 # B N
1294 1 905 906 # B N
1295 1 909 914 # B N
1296 1 909 910 # B N
1297 1 913 918 # B N
1298 1 913 914 # B N
1299 1 917 922 # B N
1300 1 917 918 # B N
1301 1 921 926 # B N
1302 1 921 922 # B N
1303 1 925 930 # B N
1304 1 925 926 # B N
1305 1 929 934 # B N
1306 1 929 930 # B N
1307 1 933 938 # B N
1308 1 933 934 # B N
1309 1 937 942 # B N
1310 1 937 938 # B N
1311 1 941 946 # B N
1312 1 941 942 # B N
1313 1 945 950 # B N
1314 1 945 946 # B N
1315 1 949 954 # B N
1316 1 949 950 # B N
1317 1 953 958 # B N
1318 1 953 954 # B N
1319 1 957 842 # B N
1320 1 957 958 # B N
1321 1 842 843 # B N
1322 1 846 847 # B N
1323 1 850 851 # B N
1324 1 854 855 # B N
1325 1 858 859 # B N
1326 1 862 863 # B N
1327 1 866 867 # B N
1328 1 870 871 # B N
1329 1 874 875 # B N
1330 1 878 879 # B N
1331 1 882 883 # B N
1332 1 886 887 # B N
1333 1 890 891 # B N
1334 1 894 895 # B N
1335 1 898 899 # B N
1336 1 902 903 # B N
1337 1 906 907 # B N
1338 1 910 911 # B N
1339 1 914 915 # B N
1340 1 918 919 # B N
1341 1 922 923 # B N
1342 1 926 927 # B N
1343 1 930 931 # B N
1344 1 934 935 # B N
1345 1 938 939 # B N
1346 1 942 943 # B N
1347 1 946 947 # B N
1348 1 950 951 # B N
1349 1 954 955 # B N
1350 1 958 959 # B N
1351 1 843 844 # B N
1352 1 844 847 # B N
1353 1 844 961 # B N
1354 1 847 848 # B N
1355 1 848 851 # B N
1356 1 848 965 # B N
1357 1 851 852 # B N
1358 1 852 855 # B N
1359 1 852 969 # B N
1360 1 855 856 # B N
1361 1 856 859 # B N
1362 1 856 973 # B N
1363 1 859 860 # B N
1364 1 860 863 # B N
1365 1 860 977 # B N
1366 1 863 864 # B N
1367 1 864 867 # B N
1368 1 864 981 # B N
1369 1 867 868 # B N
1370 1 868 871 # B N
1371 1 868 985 # B N
1372 1 871 872 # B N
1373 1 872 875 # B N
1374 1 872 989 # B N
1375 1 875 876 # B N
1376 1 876 879 # B N
1377 1 876 993 # B N
1378 1 879 880 # B N
1379 1 880 883 # B N
1380 1 880 997 # B N
1381 1 883 884 # B N
1382 1 884 887 # B N
1383 1 884 1001 # B N
1384 1 887 888 # B N
1385 1 888 891 # B N
1386 1 888 1005 # B N
1387 1 891 892 # B N
1388 1 892 895 # B N
1389 1 892 1009 # B N
1390 1 895 896 # B N
1391 1 896 899 # B N
1392 1 896 1013 # B N
1393 1 899 900 # B N
1394 1 900 903 # B N
1395 1 900 1017 # B N
1396 1 903 904 # B N
1397 1 904 907 # B N
1398 1 904 1021 # B N
1399 1 907 908 # B N
1400 1 908 911 # B N
1401 1 908 1025 # B N
1402 1 911 912 # B N
1403 1 912 915 # B N
1404 1 912 1029 # B N
1405 1 915 916 # B N
1406 1 916 919 # B N
1407 1 916 1033 # B N
1408 1 919 920 # B N
1409 1 920 923 # B N
1410 1 920 1037 # B N
1411 1 923 924 # B N
1412 1 924 927 # B N
1413 1 924 1041 # B N
1414 1 927 928 # B N
1415 1 928 931 # B N
1416 1 928 1045 # B N
1417 1 931 932 # B N
1418 1 932 935 # B N
1419 1 932 1049 # B N
1420 1 935 936 # B N
1421 1 936 939 # B N
1422 1 936 1053 # B N
1423 1 939 940 # B N
1424 1 940 943 # B N
1425 1 940 1057 # B N
1426 1 943 944 # B N
1427 1 944 947 # B N
1428 1 944 1061 # B N
1429 1 947 948 # B N
1430 1 948 951 # B N
1431 1 948 1065 # B N
1432 1 951 952 # B N
1433 1 952 955 # B N
1434 1 952 1069 # B N
1435 1 955 956 # B N
1436 1 956 959 # B N
1437 1 956 1073 # B N
1438 1 959 960 # B N
1439 1 960 843 # B N
1440 1 960 1077 # B N
1441 1 961 962 # B N
1442 1 961 966 # B N
1443 1 962 963 # B N
1444 1 966 965 # B N
1445 1 966 967 # B N
1446 1 965 970 # B N
1447 1 969 970 # B N
1448 1 969 974 # B N
1449 1 970 971 # B N
1450 1 974 973 # B N
1451 1 974 975 # B N
1452 1 973 978 # B N
1453 1 978 977 # B N
1454 1 978 979 # B N
1455 1 977 982 # B N
1456 1 981 982 # B N
1457 1 981 986 # B N
1458 1 982 983 # B N
1459 1 986 985 # B N
1460 1 986 987 # B N
1461 1 985 990 # B N
1462 1 989 990 # B N
1463 1 989 994 # B N
1464 1 990 991 # B N
1465 1 994 993 # B N
1466 1 994 995 # B N
1467 1 993 998 # B N
1468 1 998 997 # B N
1469 1 998 999 # B N
1470 1 997 1002 # B N
1471 1 1001 1002 # B N
1472 1 1001 1006 # B N
1473 1 1002 1003 # B N
1474 1 1006 1005 # B N
1475 1 1006 1007 # B N
1476 1 1005 1010 # B N
1477 1 1009 1010 # B N
1478 1 1009 1014 # B N
1479 1 1010 1011 # B N
1480 1 1014 1013 # B N
1481 1 1014 1015 # B N
1482 1 1013 1018 # B N
1483 1 1018 1017 # B N
1484 1 1018 1019 # B N
1485 1 1017 1022 # B N
1486 1 1021 1022 # B N
1487 1 1021 1026 # B N
1488 1 1022 1023 # B N
1489 1 1026 1025 # B N
1490 1 1026 1027 # B N
1491 1 1025 1030 # B N
1492 1 1029 1030 # B N
1493 1 1029 1034 # B N
1494 1 1030 1031 # B N
1495 1 1034 1033 # B N
1496 1 1034 1035 # B N
1497 1 1033 1038 # B N
1498 1 1038 1037 # B N
1499 1 1038 1039 # B N
1500 1 1037 1042 # B N
1501 1 1041 1042 # B N
1502 1 1041 1046 # B N
1503 1 1042 1043 # B N
1504 1 1046 1045 # B N
1505 1 1046 1047 # B N
1506 1 1045 1050 # B N
1507 1 1049 1050 # B N
1508 1 1049 1054 # B N
1509 1 1050 1051 # B N
1510 1 1054 1053 # B N
1511 1 1054 1055 # B N
1512 1 1053 1058 # B N
1513 1 1058 1057 # B N
1514 1 1058 1059 # B N
1515 1 1057 1062 # B N
1516 1 1061 1062 # B N
1517 1 1061 1066 # B N
1518 1 1062 1063 # B N
1519 1 1066 1065 # B N
1520 1 1066 1067 # B N
1521 1 1065 1070 # B N
1522 1 1069 1070 # B N
1523 1 1069 1074 # B N
1524 1 1070 1071 # B N
1525 1 1074 1073 # B N
1526 1 1074 1075 # B N
1527 1 1073 1078 # B N
1528 1 1078 1077 # B N
1529 1 1078 1079 # B N
1530 1 1077 962 # B N
1531 1 963 964 # B N
1532 1 963 1080 # B N
1533 1 967 968 # B N
1534 1 967 964 # B N
1535 1 971 972 # B N
1536 1 971 968 # B N
1537 1 975 976 # B N
1538 1 975 972 # B N
1539 1 979 980 # B N
1540 1 979 976 # B N
1541 1 983 984 # B N
1542 1 983 980 # B N
1543 1 987 988 # B N
1544 1 987 984 # B N
1545 1 991 992 # B N
1546 1 991 988 # B N
1547 1 995 996 # B N
1548 1 995 992 # B N
1549 1 999 1000 # B N
1550 1 999 996 # B N
1551 1 1003 1004 # B N
1552 1 1003 1000 # B N
1553 1 1007 1008 # B N
1554 1 1007 1004 # B N
1555 1 1011 1012 # B N
1556 1 1011 1008 # B N
1557 1 1015 1016 # B N
1558 1 1015 1012 # B N
1559 1 1019 1020 # B N
1560 1 1019 1016 # B N
1561 1 1023 1024 # B N
1562 1 1023 1020 # B N
1563 1 1027 1028 # B N
1564 1 1027 1024 # B N
1565 1 1031 1032 # B N
1566 1 1031 1028 # B N
1567 1 1035 1036 # B N
1568 1 1035 1032 # B N
1569 1 1039 1040 # B N
1570 1 1039 1036 # B N
1571 1 1043 1044 # B N
1572 1 1043 1040 # B N
1573 1 1047 1048 # B N
1574 1 1047 1044 # B N
1575 1 1051 1052 # B N
1576 1 1051 1048 # B N
1577 1 1055 1056 # B N
1578 1 1055 1052 # B N
1579 1 1059 1060 # B N
1580 1 1059 1056 # B N
1581 1 1063 1064 # B N
1582 1 1063 1060 # B N
1583 1 1067 1068 # B N
1584 1 1067 1064 # B N
1585 1 1071 1072 # B N
1586 1 1071 1068 # B N
1587 1 1075 1076 # B N
1588 1 1075 1072 # B N
1589 1 1079 1080 # B N
1590 1 1079 1076 # B N
1591 1 964 1081 # B N
1592 1 968 1085 # B N
1593 1 972 1089 # B N
1594 1 976 1093 # B N
1595 1 980 1097 # B N
1596 1 984 1101 # B N
1597 1 988 1105 # B N
1598 1 992 1109 # B N
1599 1 996 1113 # B N
1600 1 1000 1117 # B N
1601 1 1004 1121 # B N
1602 1 1008 1125 # B N
1603 1 1012 1129 # B N
1604 1 1016 1133 # B N
1605 1 1020 1137 # B N
1606 1 1024 1141 # B N
1607 1 1028 1145 # B N
1608 1 1032 1149 # B N
1609 1 1036 1153 # B N
1610 1 1040 1157 # B N
1611 1 1044 1161 # B N
1612 1 1048 1165 # B N
1613 1 1052 1169 # B N
1614 1 1056 1173 # B N
1615 1 1060 1177 # B N
1616 1 1064 1181 # B N
1617 1 1068 1185 # B N
1618 1 1072 1189 # B N
1619 1 1076 1193 # B N
1620 1 1080 1197 # B N
1621 1 1081 1082 # B N
1622 1 1081 1086 # B N
1623 1 1082 1083 # B N
1624 1 1086 1085 # B N
1625 1 1086 1087 # B N
1626 1 1085 1090 # B N
1627 1 1089 1090 # B N
1628 1 1089 1094 # B N
1629 1 1090 1091 # B N
1630 1 1094 1093 # B N
1631 1 1094 1095 # B N
1632 1 1093 1098 # B N
1633 1 1098 1097 # B N
1634 1 1098 1099 # B N
1635 1 1097 1102 # B N
1636 1 1101 1102 # B N
1637 1 1101 1106 # B N
1638 1 1102 1103 # B N
1639 1 1106 1105 # B N
1640 1 1106 1107 # B N
1641 1 1105 1110 # B N
1642 1 1109 1110 # B N
1643 1 1109 1114 # B N
1644 1 1110 1111 # B N
1645 1 1114 1113 # B N
1646 1 1114 1115 # B N
1647 1 1113 1118 # B N
1648 1 1118 1117 # B N
1649 1 1118 1119 # B N
1650 1 1117 1122 # B N
1651 1 1121 1122 # B N
1652 1 1121 1126 # B N
1653 1 1122 1123 # B N
1654 1 1126 1125 # B N
1655 1 1126 1127 # B N
1656 1 1125 1130 # B N
1657 1 1129 1130 # B N
1658 1 1129 1134 # B N
1659 1 1130 1131 # B N
1660 1 1134 1133 # B N
1661 1 1134 1135 # B N
1662 1 1133 1138 # B N
1663 1 1138 1137 # B N
1664 1 1138 1139 # B N
1665 1 1137 1142 # B N
1666 1 1141 1142 # B N
1667 1 1141 1146 # B N
1668 1 1142 1143 # B N
1669 1 1146 1145 # B N
1670 1 1146 1147 # B N
1671 1 1145 1150 # B N
1672 1 1149 1150 # B N
1673 1 1149 1154 # B N
1674 1 1150 1151 # B N
1675 1 1154 1153 # B N
1676 1 1154 1155 # B N
1677 1 1153 1158 # B N
1678 1 1158 1157 # B N
1679 1 1158 1159 # B N
1680 1 1157 1162 # B N
1681 1 1161 1162 # B N
1682 1 1161 1166 # B N
1683 1 1162 1163 # B N
1684 1 1166 1165 # B N
1685 1 1166 1167 # B N
1686 1 1165 1170 # B N
1687 1 1169 1170 # B N
1688 1 1169 1174 # B N
1689 1 1170 1171 # B N
1690 1 1174 1173 # B N
1691 1 1174 1175 # B N
1692 1 1173 1178 # B N
1693 1 1178 1177 # B N
1694 1 1178 1179 # B N
1695 1 1177 1182 # B N
1696 1 1181 1182 # B N
1697 1 1181 1186 # B N
1698 1 1182 1183 # B N
1699 1 1186 1185 # B N
1700 1 1186 1187 # B N
1701 1 1185 1190 # B N
1702 1 1189 1190 # B N
1703 1 1189 1194 # B N
1704 1 1190 1191 # B N
1705 1 1194 1193 # B N
1706 1 1194 1195 # B N
1707 1 1193 1198 # B N
1708 1 1198 1197 # B N
1709 1 1198 1199 # B N
1710 1 1197 1082 # B N
1711 1 1083 1084 # B N
1712 1 1083 1200 # B N
1713 1 1087 1088 # B N
1714 1 1087 1084 # B N
1715 1 1091 1092 # B N
1716 1 1091 1088 # B N
1717 1 1095 1096 # B N
1718 1 1095 1092 # B N
1719 1 1099 1100 # B N
1720 1 1099 1096 # B N
1721 1 1103 1104 # B N
1722 1 1103 1100 # B N
1723 1 1107 1108 # B N
1724 1 1107 1104 # B N
1725 1 1111 1112 # B N
1726 1 1111 1108 # B N
1727 1 1115 1116 # B N
1728 1 1115 1112 # B N
1729 1 1119 1120 # B N
1730 1 1119 1116 # B N
1731 1 1123 1124 # B N
1732 1 1123 1120 # B N
1733 1 1127 1128 # B N
1734 1 1127 1124 # B N
1735 1 1131 1132 # B N
1736 1 1131 1128 # B N
1737 1 1135 1136 # B N
1738 1 1135 1132 # B N
1739 1 1139 1140 # B N
1740 1 1139 1136 # B N
1741 1 1143 1144 # B N
1742 1 1143 1140 # B N
1743 1 1147 1148 # B N
1744 1 1147 1144 # B N
1745 1 1151 1152 # B N
1746 1 1151 1148 # B N
1747 1 1155 1156 # B N
1748 1 1155 1152 # B N
1749 1 1159 1160 # B N
1750 1 1159 1156 # B N
1751 1 1163 1164 # B N
1752 1 1163 1160 # B N
1753 1 1167 1168 # B N
1754 1 1167 1164 # B N
1755 1 1171 1172 # B N
1756 1 1171 1168 # B N
1757 1 1175 1176 # B N
1758 1 1175 1172 # B N
1759 1 1179 1180 # B N
1760 1 1179 1176 # B N
1761 1 1183 1184 # B N
1762 1 1183 1180 # B N
1763 1 1187 1188 # B N
1764 1 1187 1184 # B N
1765 1 1191 1192 # B N
1766 1 1191 1188 # B N
1767 1 1195 1196 # B N
1768 1 1195 1192 # B N
1769 1 1199 1200 # B N
1770 1 1199 1196 # B N
1771 1 1084 1201 # B N
1772 1 1201 1206 # B N
1773 1 1201 1202 # B N
1774 1 1088 1205 # B N
1775 1 1205 1210 # B N
1776 1 1205 1206 # B N
1777 1 1092 1209 # B N
1778 1 1209 1214 # B N
1779 1 1209 1210 # B N
1780 1 1096 1213 # B N
1781 1 1213 1218 # B N
1782 1 1213 1214 # B N
1783 1 1100 1217 # B N
1784 1 1217 1222 # B N
1785 1 1217 1218 # B N
1786 1 1104 1221 # B N
1787 1 1221 1226 # B N
1788 1 1221 1222 # B N
1789 1 1108 1225 # B N
1790 1 1225 1230 # B N
1791 1 1225 1226 # B N
1792 1 1112 1229 # B N
1793 1 1229 1234 # B N
1794 1 1229 1230 # B N
1795 1 1116 1233 # B N
1796 1 1233 1238 # B N
1797 1 1233 1234 # B N
1798 1 1120 1237 # B N
1799 1 1237 1242 # B N
1800 1 1237 1238 # B N
1801 1 1124 1241 # B N
1802 1 1241 1246 # B N
1803 1 1241 1242 # B N
1804 1 1128 1245 # B N
1805 1 1245 1250 # B N
1806 1 1245 1246 # B N
1807 1 1132 1249 # B N
1808 1 1249 1254 # B N
1809 1 1249 1250 # B N
1810 1 1136 1253 # B N
1811 1 1253 1258 # B N
1812 1 1253 1254 # B N
1813 1 1140 1257 # B N
1814 1 1257 1262 # B N
1815 1 1257 1258 # B N
1816 1 1144 1261 # B N
1817 1 1261 1266 # B N
1818 1 1261 1262 # B N
1819 1 1148 1265 # B N
1820 1 1265 1270 # B N
1821 1 1265 1266 # B N
1822 1 1152 1269 # B N
1823 1 1269 1274 # B N
1824 1 1269 1270 # B N
1825 1 1156 1273 # B N
1826 1 1273 1278 # B N
1827 1 1273 1274 # B N
1828 1 1160 1277 # B N
1829 1 1277 1282 # B N
1830 1 1277 1278 # B N
1831 1 1164 1281 # B N
1832 1 1281 1286 # B N
1833 1 1281 1282 # B N
1834 1 1168 1285 # B N
1835 1 1285 1290 # B N
1836 1 1285 1286 # B N
1837 1 1172 1289 # B N
1838 1 1289 1294 # B N
1839 1 1289 1290 # B N
1840 1 1176 1293 # B N
1841 1 1293 1298 # B N
1842 1 1293 1294 # B N
1843 1 1180 1297 # B N
1844 1 1297 1302 # B N
1845 1 1297 1298 # B N
1846 1 1184 1301 # B N
1847 1 1301 1306 # B N
1848 1 1301 1302 # B N
1849 1 1188 1305 # B N
1850 1 1305 1310 # B N
1851 1 1305 1306 # B N
1852 1 1192 1309 # B N
1853 1 1309 1314 # B N
1854 1 1309 1310 # B N
1855 1 1196 1313 # B N
1856 1 1313 1318 # B N
1857 1 1313 1314 # B N
1858 1 1200 1317 # B N
1859 1 1317 1202 # B N
1860 1 1317 1318 # B N
1861 1 1202 1203 # B N
1862 1 1206 1207 # B N
1863 1 1210 1211 # B N
1864 1 1214 1215 # B N
1865 1 1218 1219 # B N
1866 1 1222 1223 # B N
1867 1 1226 1227 # B N
1868 1 1230 1231 # B N
1869 1 1234 1235 # B N
1870 1 1238 1239 # B N
1871 1 1242 1243 # B N
1872 1 1246 1247 # B N
1873 1 1250 1251 # B N
1874 1 1254 1255 # B N
1875 1 1258 1259 # B N
1876 1 1262 1263 # B N
1877 1 1266 1267 # B N
1878 1 1270 1271 # B N
1879 1 1274 1275 # B N
1880 1 1278 1279 # B N
1881 1 1282 1283 # B N
1882 1 1286 1287 # B N
1883 1 1290 1291 # B N
1884 1 1294 1295 # B N
1885 1 1298 1299 # B N
1886 1 1302 1303 # B N
1887 1 1306 1307 # B N
1888 1 1310 1311 # B N
1889 1 1314 1315 # B N
1890 1 1318 1319 # B N
1891 1 1203 1204 # B N
1892 1 1204 1207 # B N
1893 1 1204 1321 # B N
1894 1 1207 1208 # B N
1895 1 1208 1211 # B N
1896 1 1208 1325 # B N
1897 1 1211 1212 # B N
1898 1 1212 1215 # B N
1899 1 1212 1329 # B N
1900 1 1215 1216 # B N
1901 1 1216 1219 # B N
1902 1 1216 1333 # B N
1903 1 1219 1220 # B N
1904 1 1220 1223 # B N
1905 1 1220 1337 # B N
1906 1 1223 1224 # B N
1907 1 1224 1227 # B N
1908 1 1224 1341 # B N
1909 1 1227 1228 # B N
1910 1 1228 1231 # B N
1911 1 1228 1345 # B N
1912 1 1231 1232 # B N
1913 1 1232 1235 # B N
1914 1 1232 1349 # B N
1915 1 1235 1236 # B N
1916 1 1236 1239 # B N
1917 1 1236 1353 # B N
1918 1 1239 1240 # B N
1919 1 1240 1243 # B N
1920 1 1240 1357 # B N
1921 1 1243 1244 # B N
1922 1 1244 1247 # B N
1923 1 1244 1361 # B N
1924 1 1247 1248 # B N
1925 1 1248 1251 # B N
1926 1 1248 1365 # B N
1927 1 1251 1252 # B N
1928 1 1252 1255 # B N
1929 1 1252 1369 # B N
1930 1 1255 1256 # B N
1931 1 1256 1259 # B N
1932 1 1256 1373 # B N
1933 1 1259 1260 # B N
1934 1 1260 1263 # B N
1935 1 1260 1377 # B N
1936 1 1263 1264 # B N
1937 1 1264 1267 # B N
1938 1 1264 1381 # B N
1939 1 1267 1268 # B N
1940 1 1268 1271 # B N
1941 1 1268 1385 # B N
1942 1 1271 1272 # B N
1943 1 1272 1275 # B N
1944 1 1272 1389 # B N
1945 1 1275 1276 # B N
1946 1 1276 1279 # B N
1947 1 1276 1393 # B N
1948 1 1279 1280 # B N
1949 1 1280 1283 # B N
1950 1 1280 1397 # B N
1951 1 1283 1284 # B N
1952 1 1284 1287 # B N
1953 1 1284 1401 # B N
1954 1 1287 1288 # B N
1955 1 1288 1291 # B N
1956 1 1288 1405 # B N
1957 1 1291 1292 # B N
1958 1 1292 1295 # B N
1959 1 1292 1409 # B N
1960 1 1295 1296 # B N
1961 1 1296 1299 # B N
1962 1 1296 1413 # B N
1963 1 1299 1300 # B N
1964 1 1300 1303 # B N
1965 1 1300 1417 # B N
1966 1 1303 1304 # B N
1967 1 1304 1307 # B N
1968 1 1304 1421 # B N
1969 1 1307 1308 # B N
1970 1 1308 1311 # B N
1971 1 1308 1425 # B N
1972 1 1311 1312 # B N
1973 1 1312 1315 # B N
1974 1 1312 1429 # B N
1975 1 1315 1316 # B N
1976 1 1316 1319 # B N
1977 1 1316 1433 # B N
1978 1 1319 1320 # B N
1979 1 1320 1203 # B N
1980 1 1320 1437 # B N
1981 1 1321 1326 # B N
1982 1 1321 1322 # B N
1983 1 1325 1330 # B N
1984 1 1325 1326 # B N
1985 1 1329 1334 # B N
1986 1 1329 1330 # B N
1987 1 1333 1338 # B N
1988 1 1333 1334 # B N
1989 1 1337 1342 # B N
1990 1 1337 1338 # B N
1991 1 1341 1346 # B N
1992 1 1341 1342 # B N
1993 1 1345 1350 # B N
1994 1 1345 1346 # B N
1995 1 1349 1354 # B N
1996 1 1349 1350 # B N
1997 1 1353 1358 # B N
1998 1 1353 1354 # B N
1999 1 1357 1362 # B N
2000 1 1357 1358 # B N
2001 1 1361 1366 # B N
2002 1 1361 1362 # B N
2003 1 1365 1370 # B N
2004 1 1365 1366 # B N
2005 1 1369 1374 # B N
2006 1 1369 1370 # B N
2007 1 1373 1378 # B N
2008 1 1373 1374 # B N
2009 1 1377 1382 # B N
2010 1 1377 1378 # B N
2011 1 1381 1386 # B N
2012 1 1381 1382 # B N
2013 1 1385 1390 # B N
2014 1 1385 1386 # B N
2015 1 1389 1394 # B N
2016 1 1389 1390 # B N
2017 1 1393 1398 # B N
2018 1 1393 1394 # B N
2019 1 1397 1402 # B N
2020 1 1397 1398 # B N
2021 1 1401 1406 # B N
2022 1 1401 1402 # B N
2023 1 1405 1410 # B N
2024 1 1405 1406 # B N
2025 1 1409 1414 # B N
2026 1 1409 1410 # B N
2027 1 1413 1418 # B N
2028 1 1413 1414 # B N
2029 1 1417 1422 # B N
2030 1 1417 1418 # B N
2031 1 1421 1426 # B N
2032 1 1421 1422 # B N
2033 1 1425 1430 # B N
2034 1 1425 1426 # B N
2035 1 1429 1434 # B N
2036 1 1429 1430 # B N
2037 1 1433 1438 # B N
2038 1 1433 1434 # B N
2039 1 1437 1322 # B N
2040 1 1437 1438 # B N
2041 1 1322 1323 # B N
2042 1 1326 1327 # B N
2043 1 1330 1331 # B N
2044 1 1334 1335 # B N
2045 1 1338 1339 # B N
2046 1 1342 1343 # B N
2047 1 1346 1347 # B N
2048 1 1350 1351 # B N
2049 1 1354 1355 # B N
2050 1 1358 1359 # B N
2051 1 1362 1363 # B N
2052 1 1366 1367 # B N
2053 1 1370 1371 # B N
2054 1 1374 1375 # B N
2055 1 1378 1379 # B N
2056 1 1382 1383 # B N
2057 1 1386 1387 # B N
2058 1 1390 1391 # B N
2059 1 1394 1395 # B N
2060 1 1398 1399 # B N
2061 1 1402 1403 # B N
2062 1 1406 1407 # B N
2063 1 1410 1411 # B N
2064 1 1414 1415 # B N
2065 1 1418 1419 # B N
2066 1 1422 1423 # B N
2067 1 1426 1427 # B N
2068 1 1430 1431 # B N
2069 1 1434 1435 # B N
2070 1 1438 1439 # B N
2071 1 1323 1324 # B N
2072 1 1324 1327 # B N
2073 1 1324 1441 # B N
2074 1 1327 1328 # B N
2075 1 1328 1331 # B N
2076 1 1328 1445 # B N
2077 1 1331 1332 # B N
2078 1 1332 1335 # B N
2079 1 1332 1449 # B N
2080 1 1335 1336 # B N
2081 1 1336 1339 # B N
2082 1 1336 1453 # B N
2083 1 1339 1340 # B N
2084 1 1340 1343 # B N
2085 1 1340 1457 # B N
2086 1 1343 1344 # B N
2087 1 1344 1347 # B N
2088 1 1344 1461 # B N
2089 1 1347 1348 # B N
2090 1 1348 1351 # B N
2091 1 1348 1465 # B N
2092 1 1351 1352 # B N
2093 1 1352 1355 # B N
2094 1 1352 1469 # B N
2095 1 1355 1356 # B N
2096 1 1356 1359 # B N
2097 1 1356 1473 # B N
2098 1 1359 1360 # B N
2099 1 1360 1363 # B N
2100 1 1360 1477 # B N
2101 1 1363 1364 # B N
2102 1 1364 1367 # B N
2103 1 1364 1481 # B N
2104 1 1367 1368 # B N
2105 1 1368 1371 # B N
2106 1 1368 1485 # B N
2107 1 1371 1372 # B N
2108 1 1372 1375 # B N
2109 1 1372 1489 # B N
2110 1 1375 1376 # B N
2111 1 1376 1379 # B N
2112 1 1376 1493 # B N
2113 1 1379 1380 # B N
2114 1 1380 1383 # B N
2115 1 1380 1497 # B N
2116 1 1383 1384 # B N
2117 1 1384 1387 # B N
2118 1 1384 1501 # B N
2119 1 1387 1388 # B N
2120 1 1388 1391 # B N
2121 1 1388 1505 # B N
2122 1 1391 1392 # B N
2123 1 1392 1395 # B N
2124 1 1392 1509 # B N
2125 1 1395 1396 # B N
2126 1 1396 1399 # B N
2127 1 1396 1513 # B N
2128 1 1399 1400 # B N
2129 1 1400 1403 # B N
2130 1 1400 1517 # B N
2131 1 1403 1404 # B N
2132 1 1404 1407 # B N
2133 1 1404 1521 # B N
2134 1 1407 1408 # B N
2135 1 1408 1411 # B N
2136 1 1408 1525 # B N
2137 1 1411 1412 # B N
2138 1 1412 1415 # B N
2139 1 1412 1529 # B N
2140 1 1415 1416 # B N
2141 1 1416 1419 # B N
2142 1 1416 1533 # B N
2143 1 1419 1420 # B N
2144 1 1420 1423 # B N
2145 1 1420 1537 # B N
2146 1 1423 1424 # B N
2147 1 1424 1427 # B N
2148 1 1424 1541 # B N
2149 1 1427 1428 # B N
2150 1 1428 1431 # B N
2151 1 1428 1545 # B N
2152 1 1431 1432 # B N
2153 1 1432 1435 # B N
2154 1 1432 1549 # B N
2155 1 1435 1436 # B N
2156 1 1436 1439 # B N
2157 1 1436 1553 # B N
2158 1 1439 1440 # B N
2159 1 1440 1323 # B N
2160 1 1440 1557 # B N
2161 1 1441 1446 # B N
2162 1 1441 1442 # B N
2163 1 1445 1450 # B N
2164 1 1445 1446 # B N
2165 1 1449 1454 # B N
2166 1 1449 1450 # B N
2167 1 1453 1458 # B N
2168 1 1453 1454 # B N
2169 1 1457 1462 # B N
2170 1 1457 1458 # B N
2171 1 1461 1466 # B N
2172 1 1461 1462 # B N
2173 1 1465 1470 # B N
2174 1 1465 1466 # B N
2175 1 1469 1474 # B N
2176 1 1469 1470 # B N
2177 1 1473 1478 # B N
2178 1 1473 1474 # B N
2179 1 1477 1482 # B N
2180 1 1477 1478 # B N
2181 1 1481 1486 # B N
2182 1 1481 1482 # B N
2183 1 1485 1490 # B N
2184 1 1485 1486 # B N
2185 1 1489 1494 # B N
2186 1 1489 1490 # B N
2187 1 1493 1498 # B N
2188 1 1493 1494 # B N
2189 1 1497 1502 # B N
2190 1 1497 1498 # B N
2191 1 1501 1506 # B N
2192 1 1501 1502 # B N
2193 1 1505 1510 # B N
2194 1 1505 1506 # B N
2195 1 1509 1514 # B N
2196 1 1509 1510 # B N
2197 1 1513 1518 # B N
2198 1 1513 1514 # B N
2199 1 1517 1522 # B N
2200 1 1517 1518 # B N
2201 1 1521 1526 # B N
2202 1 1521 1522 # B N
2203 1 1525 1530 # B N
2204 1 1525 1526 # B N
2205 1 1529 1534 # B N
2206 1 1529 1530 # B N
2207 1 1533 1538 # B N
2208 1 1533 1534 # B N
2209 1 1537 1542 # B N
2210 1 1537 1538 # B N
2211 1 1541 1546 # B N
2212 1 1541 1542 # B N
2213 1 1545 1550 # B N
2214 1 1545 1546 # B N
2215 1 1549 1554 # B N
2216 1 1549 1550 # B N
2217 1 1553 1558 # B N
2218 1 1553 1554 # B N
2219 1 1557 1442 # B N
2220 1 1557 1558 # B N
2221 1 1442 1443 # B N
2222 1 1443 1444 # B N
2223 1 1443 1560 # B N
2224 1 1446 1447 # B N
2225 1 1447 1448 # B N
2226 1 1447 1444 # B N
2227 1 1450 1451 # B N
2228 1 1451 1452 # B N
2229 1 1451 1448 # B N
2230 1 1454 1455 # B N
2231 1 1455 1456 # B N
2232 1 1455 1452 # B N
2233 1 1458 1459 # B N
2234 1 1459 1460 # B N
2235 1 1459 1456 # B N
2236 1 1462 1463 # B N
2237 1 1463 1464 # B N
2238 1 1463 1460 # B N
2239 1 1466 1467 # B N
2240 1 1467 1468 # B N
2241 1 1467 1464 # B N
2242 1 1470 1471 # B N
2243 1 1471 1472 # B N
2244 1 1471 1468 # B N
2245 1 1474 1475 # B N
2246 1 1475 1476 # B N
2247 1 1475 1472 # B N
2248 1 1478 1479 # B N
2249 1 1479 1480 # B N
2250 1 1479 1476 # B N
2251 1 1482 1483 # B N
2252 1 1483 1484 # B N
2253 1 1483 1480 # B N
2254 1 1486 1487 # B N
2255 1 1487 1488 # B N
2256 1 1487 1484 # B N
2257 1 1490 1491 # B N
2258 1 1491 1492 # B N
2259 1 1491 1488 # B N
2260 1 1494 1495 # B N
2261 1 1495 1496 # B N
2262 1 1495 1492 # B N
2263 1 1498 1499 # B N
2264 1 1499 1500 # B N
2265 1 1499 1496 # B N
2266 1 1502 1503 # B N
2267 1 1503 1504 # B N
2268 1 1503 1500 # B N
2269 1 1506 1507 # B N
2270 1 1507 1508 # B N
2271 1 1507 1504 # B N
2272 1 1510 1511 # B N
2273 1 1511 1512 # B N
2274 1 1511 1508 # B N
2275 1 1514 1515 # B N
2276 1 1515 1516 # B N
2277 1 1515 1512 # B N
2278 1 1518 1519 # B N
2279 1 1519 1520 # B N
2280 1 1519 1516 # B N
2281 1 1522 1523 # B N
2282 1 1523 1524 # B N
2283 1 1523 1520 # B N
2284 1 1526 1527 # B N
2285 1 1527 1528 # B N
2286 1 1527 1524 # B N
2287 1 1530 1531 # B N
2288 1 1531 1532 # B N
2289 1 1531 1528 # B N
2290 1 1534 1535 # B N
2291 1 1535 1536 # B N
2292 1 1535 1532 # B N
2293 1 1538 1539 # B N
2294 1 1539 1540 # B N
2295 1 1539 1536 # B N
2296 1 1542 1543 # B N
2297 1 1543 1544 # B N
2298 1 1543 1540 # B N
2299 1 1546 1547 # B N
2300 1 1547 1548 # B N
2301 1 1547 1544 # B N
2302 1 1550 1551 # B N
2303 1 1551 1552 # B N
2304 1 1551 1548 # B N
2305 1 1554 1555 # B N
2306 1 1555 1556 # B N
2307 1 1555 1552 # B N
2308 1 1558 1559 # B N
2309 1 1559 1560 # B N
2310 1 1559 1556 # B N
2311 1 1444 1561 # B N
2312 1 1448 1565 # B N
2313 1 1452 1569 # B N
2314 1 1456 1573 # B N
2315 1 1460 1577 # B N
2316 1 1464 1581 # B N
2317 1 1468 1585 # B N
2318 1 1472 1589 # B N
2319 1 1476 1593 # B N
2320 1 1480 1597 # B N
2321 1 1484 1601 # B N
2322 1 1488 1605 # B N
2323 1 1492 1609 # B N
2324 1 1496 1613 # B N
2325 1 1500 1617 # B N
2326 1 1504 1621 # B N
2327 1 1508 1625 # B N
2328 1 1512 1629 # B N
2329 1 1516 1633 # B N
2330 1 1520 1637 # B N
2331 1 1524 1641 # B N
2332 1 1528 1645 # B N
2333 1 1532 1649 # B N
2334 1 1536 1653 # B N
2335 1 1540 1657 # B N
2336 1 1544 1661 # B N
2337 1 1548 1665 # B N
2338 1 1552 1669 # B N
2339 1 1556 1673 # B N
2340 1 1560 1677 # B N
2341 1 1561 1562 # B N
2342 1 1561 1566 # B N
2343 1 1562 1563 # B N
2344 1 1566 1565 # B N
2345 1 1566 1567 # B N
2346 1 1565 1570 # B N
2347 1 1569 1570 # B N
2348 1 1569 1574 # B N
2349 1 1570 1571 # B N
2350 1 1574 1573 # B N
2351 1 1574 1575 # B N
2352 1 1573 1578 # B N
2353 1 1578 1577 # B N
2354 1 1578 1579 # B N
2355 1 1577 1582 # B N
2356 1 1581 1582 # B N
2357 1 1581 1586 # B N
2358 1 1582 1583 # B N
2359 1 1586 1585 # B N
2360 1 1586 1587 # B N
2361 1 1585 1590 # B N
2362 1 1589 1590 # B N
2363 1 1589 1594 # B N
2364 1 1590 1591 # B N
2365 1 1594 1593 # B N
2366 1 1594 1595 # B N
2367 1 1593 1598 # B N
2368 1 1598 1597 # B N
2369 1 1598 1599 # B N
2370 1 1597 1602 # B N
2371 1 1601 1602 # B N
2372 1 1601 1606 # B N
2373 1 1602 1603 # B N
2374 1 1606 1605 # B N
2375 1 1606 1607 # B N
2376 1 1605 1610 # B N
2377 1 1609 1610 # B N
2378 1 1609 1614 # B N
2379 1 1610 1611 # B N
2380 1 1614 1613 # B N
2381 1 1614 1615 # B N
2382 1 1613 1618 # B N
2383 1 1618 1617 # B N
2384 1 1618 1619 # B N
2385 1 1617 1622 # B N
2386 1 1621 1622 # B N
2387 1 1621 1626 # B N
2388 1 1622 1623 # B N
2389 1 1626 1625 # B N
2390 1 1626 1627 # B N
2391 1 1625 1630 # B N
2392 1 1629 1630 # B N
2393 1 1629 1634 # B N
2394 1 1630 1631 # B N
2395 1 1634 1633 # B N
2396 1 1634 1635 # B N
2397 1 1633 1638 # B N
2398 1 1638 1637 # B N
2399 1 1638 1639 # B N
2400 1 1637 1642 # B N
2401 1 1641 1642 # B N
2402 1 1641 1646 # B N
2403 1 1642 1643 # B N
2404 1 1646 1645 # B N
2405 1 1646 1647 # B N
2406 1 1645 1650 # B N
2407 1 1649 1650 # B N
2408 1 1649 1654 # B N
2409 1 1650 1651 # B N
2410 1 1654 1653 # B N
2411 1 1654 1655 # B N
2412 1 1653 1658 # B N
2413 1 1658 1657 # B N
2414 1 1658 1659 # B N
2415 1 1657 1662 # B N
2416 1 1661 1662 # B N
2417 1 1661 1666 # B N
2418 1 1662 1663 # B N
2419 1 1666 1665 # B N
2420 1 1666 1667 # B N
2421 1 1665 1670 # B N
2422 1 1669 1670 # B N
2423 1 1669 1674 # B N
2424 1 1670 1671 # B N
2425 1 1674 1673 # B N
2426 1 1674 1675 # B N
2427 1 1673 1678 # B N
2428 1 1678 1677 # B N
2429 1 1678 1679 # B N
2430 1 1677 1562 # B N
2431 1 1563 1564 # B N
2432 1 1563 1680 # B N
2433 1 1567 1568 # B N
2434 1 1567 1564 # B N
2435 1 1571 1572 # B N
2436 1 1571 1568 # B N
2437 1 1575 1576 # B N
2438 1 1575 1572 # B N
2439 1 1579 1580 # B N
2440 1 1579 1576 # B N
2441 1 1583 1584 # B N
2442 1 1583 1580 # B N
2443 1 1587 1588 # B N
2444 1 1587 1584 # B N
2445 1 1591 1592 # B N
2446 1 1591 1588 # B N
2447 1 1595 1596 # B N
2448 1 1595 1592 # B N
2449 1 1599 1600 # B N
2450 1 1599 1596 # B N
2451 1 1603 1604 # B N
2452 1 1603 1600 # B N
2453 1 1607 1608 # B N
2454 1 1607 1604 # B N
2455 1 1611 1612 # B N
2456 1 1611 1608 # B N
2457 1 1615 1616 # B N
2458 1 1615 1612 # B N
2459 1 1619 1620 # B N
2460 1 1619 1616 # B N
2461 1 1623 1624 # B N
2462 1 1623 1620 # B N
2463 1 1627 1628 # B N
2464 1 1627 1624 # B N
2465 1 1631 1632 # B N
2466 1 1631 1628 # B N
2467 1 1635 1636 # B N
2468 1 1635 1632 # B N
2469 1 1639 1640 # B N
2470 1 1639 1636 # B N
2471 1 1643 1644 # B N
2472 1 1643 1640 # B N
2473 1 1647 1648 # B N
2474 1 1647 1644 # B N
2475 1 1651 1652 # B N
2476 1 1651 1648 # B N
2477 1 1655 1656 # B N
2478 1 1655 1652 # B N
2479 1 1659 1660 # B N
2480 1 1659 1656 # B N
2481 1 1663 1664 # B N
2482 1 1663 1660 # B N
2483 1 1667 1668 # B N
2484 1 1667 1664 # B N
2485 1 1671 1672 # B N
2486 1 1671 1668 # B N
2487 1 1675 1676 # B N
2488 1 1675 1672 # B N
2489 1 1679 1680 # B N
2490 1 1679 1676 # B N
2491 1 1564 1681 # B N
2492 1 1568 1685 # B N
2493 1 1572 1689 # B N
2494 1 1576 1693 # B N
2495 1 1580 1697 # B N
2496 1 1584 1701 # B N
2497 1 1588 1705 # B N
2498 1 1592 1709 # B N
2499 1 1596 1713 # B N
2500 1 1600 1717 # B N
2501 1 1604 1721 # B N
2502 1 1608 1725 # B N
2503 1 1612 1729 # B N
2504 1 1616 1733 # B N
2505 1 1620 1737 # B N
2506 1 1624 1741 # B N
2507 1 1628 1745 # B N
2508 1 1632 1749 # B N
2509 1 1636 1753 # B N
2510 1 1640 1757 # B N
2511 1 1644 1761 # B N
2512 1 1648 1765 # B N
2513 1 1652 1769 # B N
2514 1 1656 1773 # B N
2515 1 1660 1777 # B N
2516 1 1664 1781 # B N
2517 1 1668 1785 # B N
2518 1 1672 1789 # B N
2519 1 1676 1793 # B N
2520 1 1680 1797 # B N
2521 1 1681 1682 # B N
2522 1 1681 1686 # B N
2523 1 1682 1683 # B N
2524 1 1686 1685 # B N
2525 1 1686 1687 # B N
2526 1 1685 1690 # B N
2527 1 1689 1690 # B N
2528 1 1689 1694 # B N
2529 1 1690 1691 # B N
2530 1 1694 1693 # B N
2531 1 1694 1695 # B N
2532 1 1693 1698 # B N
2533 1 1698 1697 # B N
2534 1 1698 1699 # B N
2535 1 1697 1702 # B N
2536 1 1701 1702 # B N
2537 1 1701 1706 # B N
2538 1 1702 1703 # B N
2539 1 1706 1705 # B N
2540 1 1706 1707 # B N
2541 1 1705 1710 # B N
2542 1 1709 1710 # B N
2543 1 1709 1714 # B N
2544 1 1710 1711 # B N
2545 1 1714 1713 # B N
2546 1 1714 1715 # B N
2547 1 1713 1718 # B N
2548 1 1718 1717 # B N
2549 1 1718 1719 # B N
2550 1 1717 1722 # B N
2551 1 1721 1722 # B N
2552 1 1721 1726 # B N
2553 1 1722 1723 # B N
2554 1 1726 1725 # B N
2555 1 1726 1727 # B N
2556 1 1725 1730 # B N
2557 1 1729 1730 # B N
2558 1 1729 1734 # B N
2559 1 1730 1731 # B N
2560 1 1734 1733 # B N
2561 1 1734 1735 # B N
2562 1 1733 1738 # B N
2563 1 1738 1737 # B N
2564 1 1738 1739 # B N
2565 1 1737 1742 # B N
2566 1 1741 1742 # B N
2567 1 1741 1746 # B N
2568 1 1742 1743 # B N
2569 1 1746 1745 # B N
2570 1 1746 1747 # B N
2571 1 1745 1750 # B N
2572 1 1749 1750 # B N
2573 1 1749 1754 # B N
2574 1 1750 1751 # B N
2575 1 1754 1753 # B N
2576 1 1754 1755 # B N
2577 1 1753 1758 # B N
2578 1 1758 1757 # B N
2579 1 1758 1759 # B N
2580 1 1757 1762 # B N
2581 1 1761 1762 # B N
2582 1 1761 1766 # B N
2583 1 1762 1763 # B N
2584 1 1766 1765 # B N
2585 1 1766 1767 # B N
2586 1 1765 1770 # B N
2587 1 1769 1770 # B N
2588 1 1769 1774 # B N
2589 1 1770 1771 # B N
2590 1 1774 1773 # B N
2591 1 1774 1775 # B N
2592 1 1773 1778 # B N
2593 1 1778 1777 # B N
2594 1 1778 1779 # B N
2595 1 1777 1782 # B N
2596 1 1781 1782 # B N
2597 1 1781 1786 # B N
2598 1 1782 1783 # B N
2599 1 1786 1785 # B N
2600 1 1786 1787 # B N
2601 1 1785 1790 # B N
2602 1 1789 1790 # B N
2603 1 1789 1794 # B N
2604 1 1790 1791 # B N
2605 1 1794 1793 # B N
2606 1 1794 1795 # B N
2607 1 1793 1798 # B N
2608 1 1798 1797 # B N
2609 1 1798 1799 # B N
2610 1 1797 1682 # B N
2611 1 1683 1684 # B N
2612 1 1683 1800 # B N
2613 1 1687 1688 # B N
2614 1 1687 1684 # B N
2615 1 1691 1692 # B N
2616 1 1691 1688 # B N
2617 1 1695 1696 # B N
2618 1 1695 1692 # B N
2619 1 1699 1700 # B N
2620 1 1699 1696 # B N
2621 1 1703 1704 # B N
2622 1 1703 1700 # B N
2623 1 1707 1708 # B N
2624 1 1707 1704 # B N
2625 1 1711 1712 # B N
2626 1 1711 1708 # B N
2627 1 1715 1716 # B N
2628 1 1715 1712 # B N
2629 1 1719 1720 # B N
2630 1 1719 1716 # B N
2631 1 1723 1724 # B N
2632 1 1723 1720 # B N
2633 1 1727 1728 # B N
2634 1 1727 1724 # B N
2635 1 1731 1732 # B N
2636 1 1731 1728 # B N
2637 1 1735 1736 # B N
2638 1 1735 1732 # B N
2639 1 1739 1740 # B N
2640 1 1739 1736 # B N
2641 1 1743 1744 # B N
2642 1 1743 1740 # B N
2643 1 1747 1748 # B N
2644 1 1747 1744 # B N
2645 1 1751 1752 # B N
2646 1 1751 1748 # B N
2647 1 1755 1756 # B N
2648 1 1755 1752 # B N
2649 1 1759 1760 # B N
2650 1 1759 1756 # B N
2651 1 1763 1764 # B N
2652 1 1763 1760 # B N
2653 1 1767 1768 # B N
2654 1 1767 1764 # B N
2655 1 1771 1772 # B N
2656 1 1771 1768 # B N
2657 1 1775 1776 # B N
2658 1 1775 1772 # B N
2659 1 1779 1780 # B N
2660 1 1779 1776 # B N
2661 1 1783 1784 # B N
2662 1 1783 1780 # B N
2663 1 1787 1788 # B N
2664 1 1787 1784 # B N
2665 1 1791 1792 # B N
2666 1 1791 1788 # B N
2667 1 1795 1796 # B N
2668 1 1795 1792 # B N
2669 1 1799 1800 # B N
2670 1 1799 1796 # B N
2671 1 1684 1 # B N
2672 1 1688 5 # B N
2673 1 1692 9 # B N
2674 1 1696 13 # B N
2675 1 1700 17 # B N
2676 1 1704 21 # B N
2677 1 1708 25 # B N
2678 1 1712 29 # B N
2679 1 1716 33 # B N
2680 1 1720 37 # B N
2681 1 1724 41 # B N
2682 1 1728 45 # B N
2683 1 1732 49 # B N
2684 1 1736 53 # B N
2685 1 1740 57 # B N
2686 1 1744 61 # B N
2687 1 1748 65 # B N
2688 1 1752 69 # B N
2689 1 1756 73 # B N
2690 1 1760 77 # B N
2691 1 1764 81 # B N
2692 1 1768 85 # B N
2693 1 1772 89 # B N
2694 1 1776 93 # B N
2695 1 1780 97 # B N
2696 1 1784 101 # B N
2697 1 1788 105 # B N
2698 1 1792 109 # B N
2699 1 1796 113 # B N
2700 1 1800 117 # B N

Angles

1 1 1 2 3 # B N B
2 1 1 2 117 # B N B
3 2 2 1 6 # N B N
4 2 2 1 1684 # N B N
5 1 1 6 5 # B N B
6 1 1 6 7 # B N B
7 2 6 1 1684 # N B N
8 1 1 1684 1683 # B N B
9 1 1 1684 1687 # B N B
10 2 2 3 4 # N B N
11 2 2 3 120 # N B N
12 1 3 2 117 # B N B
13 2 2 117 118 # N B N
14 2 2 117 1800 # N B N
15 1 3 4 7 # B N B
16 1 3 4 121 # B N B
17 2 4 3 120 # N B N
18 1 3 120 119 # B N B
19 1 3 120 237 # B N B
20 2 4 7 6 # N B N
21 2 4 7 8 # N B N
22 1 7 4 121 # B N B
23 2 4 121 126 # N B N
24 2 4 121 122 # N B N
25 1 5 6 7 # B N B
26 2 6 5 10 # N B N
27 2 6 5 1688 # N B N
28 1 5 10 9 # B N B
29 1 5 10 11 # B N B
30 2 10 5 1688 # N B N
31 1 5 1688 1687 # B N B
32 1 5 1688 1691 # B N B
33 2 6 7 8 # N B N
34 1 7 8 11 # B N B
35 1 7 8 125 # B N B
36 2 8 11 10 # N B N
37 2 8 11 12 # N B N
38 1 11 8 125 # B N B
39 2 8 125 130 # N B N
40 2 8 125 126 # N B N
41 1 9 10 11 # B N B
42 2 10 9 14 # N B N
43 2 10 9 1692 # N B N
44 1 9 14 13 # B N B
45 1 9 14 15 # B N B
46 2 14 9 1692 # N B N
47 1 9 1692 1691 # B N B
48 1 9 1692 1695 # B N B
49 2 10 11 12 # N B N
50 1 11 12 15 # B N B
51 1 11 12 129 # B N B
52 2 12 15 14 # N B N
53 2 12 15 16 # N B N
54 1 15 12 129 # B N B
55 2 12 129 134 # N B N
56 2 12 129 130 # N B N
57 1 13 14 15 # B N B
58 2 14 13 18 # N B N
59 2 14 13 1696 # N B N
60 1 13 18 17 # B N B
61 1 13 18 19 # B N B
62 2 18 13 1696 # N B N
63 1 13 1696 1695 # B N B
64 1 13 1696 1699 # B N B
65 2 14 15 16 # N B N
66 1 15 16 19 # B N B
67 1 15 16 133 # B N B
68 2 16 19 18 # N B N
69 2 16 19 20 # N B N
70 1 19 16 133 # B N B
71 2 16 133 138 # N B N
72 2 16 133 134 # N B N
73 1 17 18 19 # B N B
74 2 18 17 22 # N B N
75 2 18 17 1700 # N B N
76 1 17 22 21 # B N B
77 1 17 22 23 # B N B
78 2 22 17 1700 # N B N
79 1 17 1700 1699 # B N B
80 1 17 1700 1703 # B N B
81 2 18 19 20 # N B N
82 1 19 20 23 # B N B
83 1 19 20 137 # B N B
84 2 20 23 22 # N B N
85 2 20 23 24 # N B N
86 1 23 20 137 # B N B
87 2 20 137 142 # N B N
88 2 20 137 138 # N B N
89 1 21 22 23 # B N B
90 2 22 21 26 # N B N
91 2 22 21 1704 # N B N
92 1 21 26 25 # B N B
93 1 21 26 27 # B N B
94 2 26 21 1704 # N B N
95 1 21 1704 1703 # B N B
96 1 21 1704 1707 # B N B
97 2 22 23 24 # N B N
98 1 23 24 27 # B N B
99 1 23 24 141 # B N B
100 2 24 27 26 # N B N
101 2 24 27 28 # N B N
102 1 27 24 141 # B N B
103 2 24 141 146 # N B N
104 2 24 141 142 # N B N
105 1 25 26 27 # B N B
106 2 26 25 30 # N B N
107 2 26 25 1708 # N B N
108 1 25 30 29 # B N B
109 1 25 30 31 # B N B
110 2 30 25 1708 # N B N
111 1 25 1708 1707 # B N B
112 1 25 1708 1711 # B N B
113 2 26 27 28 # N B N
114 1 27 28 31 # B N B
115 1 27 28 145 # B N B
116 2 28 31 30 # N B N
117 2 28 31 32 # N B N
118 1 31 28 145 # B N B
119 2 28 145 150 # N B N
120 2 28 145 146 # N B N
121 1 29 30 31 # B N B
122 2 30 29 34 # N B N
123 2 30 29 1712 # N B N
124 1 29 34 33 # B N B
125 1 29 34 35 # B N B
126 2 34 29 1712 # N B N
127 1 29 1712 1711 # B N B
128 1 29 1712 1715 # B N B
129 2 30 31 32 # N B N
130 1 31 32 35 # B N B
131 1 31 32 149 # B N B
132 2 32 35 34 # N B N
133 2 32 35 36 # N B N
134 1 35 32 149 # B N B
135 2 32 149 154 # N B N
136 2 32 149 150 # N B N
137 1 33 34 35 # B N B
138 2 34 33 38 # N B N
139 2 34 33 1716 # N B N
140 1 33 38 37 # B N B
141 1 33 38 39 # B N B
142 2 38 33 1716 # N B N
143 1 33 1716 1715 # B N B
144 1 33 1716 1719 # B N B
145 2 34 35 36 # N B N
146 1 35 36 39 # B N B
147 1 35 36 153 # B N B
148 2 36 39 38 # N B N
149 2 36 39 40 # N B N
150 1 39 36 153 # B N B
151 2 36 153 158 # N B N
152 2 36 153 154 # N B N
153 1 37 38 39 # B N B
154 2 38 37 42 # N B N
155 2 38 37 1720 # N B N
156 1 37 42 41 # B N B
157 1 37 42 43 # B N B
158 2 42 37 1720 # N B N
159 1 37 1720 1719 # B N B
160 1 37 1720 1723 # B N B
161 2 38 39 40 # N B N
162 1 39 40 43 # B N B
163 1 39 40 157 # B N B
164 2 40 43 42 # N B N
165 2 40 43 44 # N B N
166 1 43 40 157 # B N B
167 2 40 157 162 # N B N
168 2 40 157 158 # N B N
169 1 41 42 43 # B N B
170 2 42 41 46 # N B N
171 2 42 41 1724 # N B N
172 1 41 46 45 # B N B
173 1 41 46 47 # B N B
174 2 46 41 1724 # N B N
175 1 41 1724 1723 # B N B
176 1 41 1724 1727 # B N B
177 2 42 43 44 # N B N
178 1 43 44 47 # B N B
179 1 43 44 161 # B N B
180 2 44 47 46 # N B N
181 2 44 47 48 # N B N
182 1 47 44 161 # B N B
183 2 44 161 166 # N B N
184 2 44 161 162 # N B N
185 1 45 46 47 # B N B
186 2 46 45 50 # N B N
187 2 46 45 1728 # N B N
188 1 45 50 49 # B N B
189 1 45 50 51 # B N B
190 2 50 45 1728 # N B N
191 1 45 1728 1727 # B N B
192 1 45 1728 1731 # B N B
193 2 46 47 48 # N B N
194 1 47 48 51 # B N B
195 1 47 48 165 # B N B
196 2 48 51 50 # N B N
197 2 48 51 52 # N B N
198 1 51 48 165 # B N B
199 2 48 165 170 # N B N
200 2 48 165 166 # N B N
201 1 49 50 51 # B N B
202 2 50 49 54 # N B N
203 2 50 49 1732 # N B N
204 1 49 54 53 # B N B
205 1 49 54 55 # B N B
206 2 54 49 1732 # N B N
207 1 49 1732 1731 # B N B
208 1 49 1732 1735 # B N B
209 2 50 51 52 # N B N
210 1 51 52 55 # B N B
211 1 51 52 169 # B N B
212 2 52 55 54 # N B N
213 2 52 55 56 # N B N
214 1 55 52 169 # B N B
215 2 52 169 174 # N B N
216 2 52 169 170 # N B N
217 1 53 54 55 # B N B
218 2 54 53 58 # N B N
219 2 54 53 1736 # N B N
220 1 53 58 57 # B N B
221 1 53 58 59 # B N B
222 2 58 53 1736 # N B N
223 1 53 1736 1735 # B N B
224 1 53 1736 1739 # B N B
225 2 54 55 56 # N B N
226 1 55 56 59 # B N B
227 1 55 56 173 # B N B
228 2 56 59 58 # N B N
229 2 56 59 60 # N B N
230 1 59 56 173 # B N B
231 2 56 173 178 # N B N
232 2 56 173 174 # N B N
233 1 57 58 59 # B N B
234 2 58 57 62 # N B N
235 2 58 57 1740 # N B N
236 1 57 62 61 # B N B
237 1 57 62 63 # B N B
238 2 62 57 1740 # N B N
239 1 57 1740 1739 # B N B
240 1 57 1740 1743 # B N B
241 2 58 59 60 # N B N
242 1 59 60 63 # B N B
243 1 59 60 177 # B N B
244 2 60 63 62 # N B N
245 2 60 63 64 # N B N
246 1 63 60 177 # B N B
247 2 60 177 182 # N B N
248 2 60 177 178 # N B N
249 1 61 62 63 # B N B
250 2 62 61 66 # N B N
251 2 62 61 1744 # N B N
252 1 61 66 65 # B N B
253 1 61 66 67 # B N B
254 2 66 61 1744 # N B N
255 1 61 1744 1743 # B N B
256 1 61 1744 1747 # B N B
257 2 62 63 64 # N B N
258 1 63 64 67 # B N B
259 1 63 64 181 # B N B
260 2 64 67 66 # N B N
261 2 64 67 68 # N B N
262 1 67 64 181 # B N B
263 2 64 181 186 # N B N
264 2 64 181 182 # N B N
265 1 65 66 67 # B N B
266 2 66 65 70 # N B N
267 2 66 65 1748 # N B N
268 1 65 70 69 # B N B
269 1 65 70 71 # B N B
270 2 70 65 1748 # N B N
271 1 65 1748 1747 # B N B
272 1 65 1748 1751 # B N B
273 2 66 67 68 # N B N
274 1 67 68 71 # B N B
275 1 67 68 185 # B N B
276 2 68 71 70 # N B N
277 2 68 71 72 # N B N
278 1 71 68 185 # B N B
279 2 68 185 190 # N B N
280 2 68 185 186 # N B N
281 1 69 70 71 # B N B
282 2 70 69 74 # N B N
283 2 70 69 1752 # N B N
284 1 69 74 73 # B N B
285 1 69 74 75 # B N B
286 2 74 69 1752 # N B N
287 1 69 1752 1751 # B N B
288 1 69 1752 1755 # B N B
289 2 70 71 72 # N B N
290 1 71 72 75 # B N B
291 1 71 72 189 # B N B
292 2 72 75 74 # N B N
293 2 72 75 76 # N B N
294 1 75 72 189 # B N B
295 2 72 189 194 # N B N
296 2 72 189 190 # N B N
297 1 73 74 75 # B N B
298 2 74 73 78 # N B N
299 2 74 73 1756 # N B N
300 1 73 78 77 # B N B
301 1 73 78 79 # B N B
302 2 78 73 1756 # N B N
303 1 73 1756 1755 # B N B
304 1 73 1756 1759 # B N B
305 2 74 75 76 # N B N
306 1 75 76 79 # B N B
307 1 75 76 193 # B N B
308 2 76 79 78 # N B N
309 2 76 79 80 # N B N
310 1 79 76 193 # B N B
311 2 76 193 198 # N B N
312 2 76 193 194 # N B N
313 1 77 78 79 # B N B
314 2 78 77 82 # N B N
315 2 78 77 1760 # N B N
316 1 77 82 81 # B N B
317 1 77 82 83 # B N B
318 2 82 77 1760 # N B N
319 1 77 1760 1759 # B N B
320 1 77 1760 1763 # B N B
321 2 78 79 80 # N B N
322 1 79 80 83 # B N B
323 1 79 80 197 # B N B
324 2 80 83 82 # N B N
325 2 80 83 84 # N B N
326 1 83 80 197 # B N B
327 2 80 197 202 # N B N
328 2 80 197 198 # N B N
329 1 81 82 83 # B N B
330 2 82 81 86 # N B N
331 2 82 81 1764 # N B N
332 1 81 86 85 # B N B
333 1 81 86 87 # B N B
334 2 86 81 1764 # N B N
335 1 81 1764 1763 # B N B
336 1 81 1764 1767 # B N B
337 2 82 83 84 # N B N
338 1 83 84 87 # B N B
339 1 83 84 201 # B N B
340 2 84 87 86 # N B N
341 2 84 87 88 # N B N
342 1 87 84 201 # B N B
343 2 84 201 206 # N B N
344 2 84 201 202 # N B N
345 1 85 86 87 # B N B
346 2 86 85 90 # N B N
347 2 86 85 1768 # N B N
348 1 85 90 89 # B N B
349 1 85 90 91 # B N B
350 2 90 85 1768 # N B N
351 1 85 1768 1767 # B N B
352 1 85 1768 1771 # B N B
353 2 86 87 88 # N B N
354 1 87 88 91 # B N B
355 1 87 88 205 # B N B
356 2 88 91 90 # N B N
357 2 88 91 92 # N B N
358 1 91 88 205 # B N B
359 2 88 205 210 # N B N
360 2 88 205 206 # N B N
361 1 89 90 91 # B N B
362 2 90 89 94 # N B N
363 2 90 89 1772 # N B N
364 1 89 94 93 # B N B
365 1 89 94 95 # B N B
366 2 94 89 1772 # N B N
367 1 89 1772 1771 # B N B
368 1 89 1772 1775 # B N B
369 2 90 91 92 # N B N
370 1 91 92 95 # B N B
371 1 91 92 209 # B N B
372 2 92 95 94 # N B N
373 2 92 95 96 # N B N
374 1 95 92 209 # B N B
375 2 92 209 214 # N B N
376 2 92 209 210 # N B N
377 1 93 94 95 # B N B
378 2 94 93 98 # N B N
379 2 94 93 1776 # N B N
380 1 93 98 97 # B N B
381 1 93 98 99 # B N B
382 2 98 93 1776 # N B N
383 1 93 1776 1775 # B N B
384 1 93 1776 1779 # B N B
385 2 94 95 96 # N B N
386 1 95 96 99 # B N B
387 1 95 96 213 # B N B
388 2 96 99 98 # N B N
389 2 96 99 100 # N B N
390 1 99 96 213 # B N B
391 2 96 213 218 # N B N
392 2 96 213 214 # N B N
393 1 97 98 99 # B N B
394 2 98 97 102 # N B N
395 2 98 97 1780 # N B N
396 1 97 102 101 # B N B
397 1 97 102 103 # B N B
398 2 102 97 1780 # N B N
399 1 97 1780 1779 # B N B
400 1 97 1780 1783 # B N B
401 2 98 99 100 # N B N
402 1 99 100 103 # B N B
403 1 99 100 217 # B N B
404 2 100 103 102 # N B N
405 2 100 103 104 # N B N
406 1 103 100 217 # B N B
407 2 100 217 222 # N B N
408 2 100 217 218 # N B N
409 1 101 102 103 # B N B
410 2 102 101 106 # N B N
411 2 102 101 1784 # N B N
412 1 101 106 105 # B N B
413 1 101 106 107 # B N B
414 2 106 101 1784 # N B N
415 1 101 1784 1783 # B N B
416 1 101 1784 1787 # B N B
417 2 102 103 104 # N B N
418 1 103 104 107 # B N B
419 1 103 104 221 # B N B
420 2 104 107 106 # N B N
421 2 104 107 108 # N B N
422 1 107 104 221 # B N B
423 2 104 221 226 # N B N
424 2 104 221 222 # N B N
425 1 105 106 107 # B N B
426 2 106 105 110 # N B N
427 2 106 105 1788 # N B N
428 1 105 110 109 # B N B
429 1 105 110 111 # B N B
430 2 110 105 1788 # N B N
431 1 105 1788 1787 # B N B
432 1 105 1788 1791 # B N B
433 2 106 107 108 # N B N
434 1 107 108 111 # B N B
435 1 107 108 225 # B N B
436 2 108 111 110 # N B N
437 2 108 111 112 # N B N
438 1 111 108 225 # B N B
439 2 108 225 230 # N B N
440 2 108 225 226 # N B N
441 1 109 110 111 # B N B
442 2 110 109 114 # N B N
443 2 110 109 1792 # N B N
444 1 109 114 113 # B N B
445 1 109 114 115 # B N B
446 2 114 109 1792 # N B N
447 1 109 1792 1791 # B N B
448 1 109 1792 1795 # B N B
449 2 110 111 112 # N B N
450 1 111 112 115 # B N B
451 1 111 112 229 # B N B
452 2 112 115 114 # N B N
453 2 112 115 116 # N B N
454 1 115 112 229 # B N B
455 2 112 229 234 # N B N
456 2 112 229 230 # N B N
457 1 113 114 115 # B N B
458 2 114 113 118 # N B N
459 2 114 113 1796 # N B N
460 1 113 118 117 # B N B
461 1 113 118 119 # B N B
462 2 118 113 1796 # N B N
463 1 113 1796 1795 # B N B
464 1 113 1796 1799 # B N B
465 2 114 115 116 # N B N
466 1 115 116 119 # B N B
467 1 115 116 233 # B N B
468 2 116 119 118 # N B N
469 2 116 119 120 # N B N
470 1 119 116 233 # B N B
471 2 116 233 238 # N B N
472 2 116 233 234 # N B N
473 1 117 118 119 # B N B
474 2 118 117 1800 # N B N
475 1 117 1800 1683 # B N B
476 1 117 1800 1799 # B N B
477 2 118 119 120 # N B N
478 1 119 120 237 # B N B
479 2 120 237 122 # N B N
480 2 120 237 238 # N B N
481 1 121 126 125 # B N B
482 1 121 126 127 # B N B
483 1 121 122 237 # B N B
484 1 121 122 123 # B N B
485 2 122 121 126 # N B N
486 2 122 237 238 # N B N
487 2 122 123 124 # N B N
488 2 122 123 240 # N B N
489 1 123 122 237 # B N B
490 1 123 124 127 # B N B
491 1 123 124 241 # B N B
492 2 124 123 240 # N B N
493 1 123 240 239 # B N B
494 1 123 240 357 # B N B
495 2 124 127 126 # N B N
496 2 124 127 128 # N B N
497 1 127 124 241 # B N B
498 2 124 241 246 # N B N
499 2 124 241 242 # N B N
500 1 125 130 129 # B N B
501 1 125 130 131 # B N B
502 1 125 126 127 # B N B
503 2 126 125 130 # N B N
504 2 126 127 128 # N B N
505 1 127 128 131 # B N B
506 1 127 128 245 # B N B
507 2 128 131 130 # N B N
508 2 128 131 132 # N B N
509 1 131 128 245 # B N B
510 2 128 245 250 # N B N
511 2 128 245 246 # N B N
512 1 129 134 133 # B N B
513 1 129 134 135 # B N B
514 1 129 130 131 # B N B
515 2 130 129 134 # N B N
516 2 130 131 132 # N B N
517 1 131 132 135 # B N B
518 1 131 132 249 # B N B
519 2 132 135 134 # N B N
520 2 132 135 136 # N B N
521 1 135 132 249 # B N B
522 2 132 249 254 # N B N
523 2 132 249 250 # N B N
524 1 133 138 137 # B N B
525 1 133 138 139 # B N B
526 1 133 134 135 # B N B
527 2 134 133 138 # N B N
528 2 134 135 136 # N B N
529 1 135 136 139 # B N B
530 1 135 136 253 # B N B
531 2 136 139 138 # N B N
532 2 136 139 140 # N B N
533 1 139 136 253 # B N B
534 2 136 253 258 # N B N
535 2 136 253 254 # N B N
536 1 137 142 141 # B N B
537 1 137 142 143 # B N B
538 1 137 138 139 # B N B
539 2 138 137 142 # N B N
540 2 138 139 140 # N B N
541 1 139 140 143 # B N B
542 1 139 140 257 # B N B
543 2 140 143 142 # N B N
544 2 140 143 144 # N B N
545 1 143 140 257 # B N B
546 2 140 257 262 # N B N
547 2 140 257 258 # N B N
548 1 141 146 145 # B N B
549 1 141 146 147 # B N B
550 1 141 142 143 # B N B
551 2 142 141 146 # N B N
552 2 142 143 144 # N B N
553 1 143 144 147 # B N B
554 1 143 144 261 # B N B
555 2 144 147 146 # N B N
556 2 144 147 148 # N B N
557 1 147 144 261 # B N B
558 2 144 261 266 # N B N
559 2 144 261 262 # N B N
560 1 145 150 149 # B N B
561 1 145 150 151 # B N B
562 1 145 146 147 # B N B
563 2 146 145 150 # N B N
564 2 146 147 148 # N B N
565 1 147 148 151 # B N B
566 1 147 148 265 # B N B
567 2 148 151 150 # N B N
568 2 148 151 152 # N B N
569 1 151 148 265 # B N B
570 2 148 265 270 # N B N
571 2 148 265 266 # N B N
572 1 149 154 153 # B N B
573 1 149 154 155 # B N B
574 1 149 150 151 # B N B
575 2 150 149 154 # N B N
576 2 150 151 152 # N B N
577 1 151 152 155 # B N B
578 1 151 152 269 # B N B
579 2 152 155 154 # N B N
580 2 152 155 156 # N B N
581 1 155 152 269 # B N B
582 2 152 269 274 # N B N
583 2 152 269 270 # N B N
584 1 153 158 157 # B N B
585 1 153 158 159 # B N B
586 1 153 154 155 # B N B
587 2 154 153 158 # N B N
588 2 154 155 156 # N B N
589 1 155 156 159 # B N B
590 1 155 156 273 # B N B
591 2 156 159 158 # N B N
592 2 156 159 160 # N B N
593 1 159 156 273 # B N B
594 2 156 273 278 # N B N
595 2 156 273 274 # N B N
596 1 157 162 161 # B N B
597 1 157 162 163 # B N B
598 1 157 158 159 # B N B
599 2 158 157 162 # N B N
600 2 158 159 160 # N B N
601 1 159 160 163 # B N B
602 1 159 160 277 # B N B
603 2 160 163 162 # N B N
604 2 160 163 164 # N B N
605 1 163 160 277 # B N B
606 2 160 277 282 # N B N
607 2 160 277 278 # N B N
608 1 161 166 165 # B N B
609 1 161 166 167 # B N B
610 1 161 162 163 # B N B
611 2 162 161 166 # N B N
612 2 162 163 164 # N B N
613 1 163 164 167 # B N B
614 1 163 164 281 # B N B
615 2 164 167 166 # N B N
616 2 164 167 168 # N B N
617 1 167 164 281 # B N B
618 2 164 281 286 # N B N
619 2 164 281 282 # N B N
620 1 165 170 169 # B N B
621 1 165 170 171 # B N B
622 1 165 166 167 # B N B
623 2 166 165 170 # N B N
624 2 166 167 168 # N B N
625 1 167 168 171 # B N B
626 1 167 168 285 # B N B
627 2 168 171 170 # N B N
628 2 168 171 172 # N B N
629 1 171 168 285 # B N B
630 2 168 285 290 # N B N
631 2 168 285 286 # N B N
632 1 169 174 173 # B N B
633 1 169 174 175 # B N B
634 1 169 170 171 # B N B
635 2 170 169 174 # N B N
636 2 170 171 172 # N B N
637 1 171 172 175 # B N B
638 1 171 172 289 # B N B
639 2 172 175 174 # N B N
640 2 172 175 176 # N B N
641 1 175 172 289 # B N B
642 2 172 289 294 # N B N
643 2 172 289 290 # N B N
644 1 173 178 177 # B N B
645 1 173 178 179 # B N B
646 1 173 174 175 # B N B
647 2 174 173 178 # N B N
648 2 174 175 176 # N B N
649 1 175 176 179 # B N B
650 1 175 176 293 # B N B
651 2 176 179 178 # N B N
652 2 176 179 180 # N B N
653 1 179 176 293 # B N B
654 2 176 293 298 # N B N
655 2 176 293 294 # N B N
656 1 177 182 181 # B N B
657 1 177 182 183 # B N B
658 1 177 178 179 # B N B
659 2 178 177 182 # N B N
660 2 178 179 180 # N B N
661 1 179 180 183 # B N B
662 1 179 180 297 # B N B
663 2 180 183 182 # N B N
664 2 180 183 184 # N B N
665 1 183 180 297 # B N B
666 2 180 297 302 # N B N
667 2 180 297 298 # N B N
668 1 181 186 185 # B N B
669 1 181 186 187 # B N B
670 1 181 182 183 # B N B
671 2 182 181 186 # N B N
672 2 182 183 184 # N B N
673 1 183 184 187 # B N B
674 1 183 184 301 # B N B
675 2 184 187 186 # N B N
676 2 184 187 188 # N B N
677 1 187 184 301 # B N B
678 2 184 301 306 # N B N
679 2 184 301 302 # N B N
680 1 185 190 189 # B N B
681 1 185 190 191 # B N B
682 1 185 186 187 # B N B
683 2 186 185 190 # N B N
684 2 186 187 188 # N B N
685 1 187 188 191 # B N B
686 1 187 188 305 # B N B
687 2 188 191 190 # N B N
688 2 188 191 192 # N B N
689 1 191 188 305 # B N B
690 2 188 305 310 # N B N
691 2 188 305 306 # N B N
692 1 189 194 193 # B N B
693 1 189 194 195 # B N B
694 1 189 190 191 # B N B
695 2 190 189 194 # N B N
696 2 190 191 192 # N B N
697 1 191 192 195 # B N B
698 1 191 192 309 # B N B
699 2 192 195 194 # N B N
700 2 192 195 196 # N B N
701 1 195 192 309 # B N B
702 2 192 309 314 # N B N
703 2 192 309 310 # N B N
704 1 193 198 197 # B N B
705 1 193 198 199 # B N B
706 1 193 194 195 # B N B
707 2 194 193 198 # N B N
708 2 194 195 196 # N B N
709 1 195 196 199 # B N B
710 1 195 196 313 # B N B
711 2 196 199 198 # N B N
712 2 196 199 200 # N B N
713 1 199 196 313 # B N B
714 2 196 313 318 # N B N
715 2 196 313 314 # N B N
716 1 197 202 201 # B N B
717 1 197 202 203 # B N B
718 1 197 198 199 # B N B
719 2 198 197 202 # N B N
720 2 198 199 200 # N B N
721 1 199 200 203 # B N B
722 1 199 200 317 # B N B
723 2 200 203 202 # N B N
724 2 200 203 204 # N B N
725 1 203 200 317 # B N B
726 2 200 317 322 # N B N
727 2 200 317 318 # N B N
728 1 201 206 205 # B N B
729 1 201 206 207 # B N B
730 1 201 202 203 # B N B
731 2 202 201 206 # N B N
732 2 202 203 204 # N B N
733 1 203 204 207 # B N B
734 1 203 204 321 # B N B
735 2 204 207 206 # N B N
736 2 204 207 208 # N B N
737 1 207 204 321 # B N B
738 2 204 321 326 # N B N
739 2 204 321 322 # N B N
740 1 205 210 209 # B N B
741 1 205 210 211 # B N B
742 1 205 206 207 # B N B
743 2 206 205 210 # N B N
744 2 206 207 208 # N B N
745 1 207 208 211 # B N B
746 1 207 208 325 # B N B
747 2 208 211 210 # N B N
748 2 208 211 212 # N B N
749 1 211 208 325 # B N B
750 2 208 325 330 # N B N
751 2 208 325 326 # N B N
752 1 209 214 213 # B N B
753 1 209 214 215 # B N B
754 1 209 210 211 # B N B
755 2 210 209 214 # N B N
756 2 210 211 212 # N B N
757 1 211 212 215 # B N B
758 1 211 212 329 # B N B
759 2 212 215 214 # N B N
760 2 212 215 216 # N B N
761 1 215 212 329 # B N B
762 2 212 329 334 # N B N
763 2 212 329 330 # N B N
764 1 213 218 217 # B N B
765 1 213 218 219 # B N B
766 1 213 214 215 # B N B
767 2 214 213 218 # N B N
768 2 214 215 216 # N B N
769 1 215 216 219 # B N B
770 1 215 216 333 # B N B
771 2 216 219 218 # N B N
772 2 216 219 220 # N B N
773 1 219 216 333 # B N B
774 2 216 333 338 # N B N
775 2 216 333 334 # N B N
776 1 217 222 221 # B N B
777 1 217 222 223 # B N B
778 1 217 218 219 # B N B
779 2 218 217 222 # N B N
780 2 218 219 220 # N B N
781 1 219 220 223 # B N B
782 1 219 220 337 # B N B
783 2 220 223 222 # N B N
784 2 220 223 224 # N B N
785 1 223 220 337 # B N B
786 2 220 337 342 # N B N
787 2 220 337 338 # N B N
788 1 221 226 225 # B N B
789 1 221 226 227 # B N B
790 1 221 222 223 # B N B
791 2 222 221 226 # N B N
792 2 222 223 224 # N B N
793 1 223 224 227 # B N B
794 1 223 224 341 # B N B
795 2 224 227 226 # N B N
796 2 224 227 228 # N B N
797 1 227 224 341 # B N B
798 2 224 341 346 # N B N
799 2 224 341 342 # N B N
800 1 225 230 229 # B N B
801 1 225 230 231 # B N B
802 1 225 226 227 # B N B
803 2 226 225 230 # N B N
804 2 226 227 228 # N B N
805 1 227 228 231 # B N B
806 1 227 228 345 # B N B
807 2 228 231 230 # N B N
808 2 228 231 232 # N B N
809 1 231 228 345 # B N B
810 2 228 345 350 # N B N
811 2 228 345 346 # N B N
812 1 229 234 233 # B N B
813 1 229 234 235 # B N B
814 1 229 230 231 # B N B
815 2 230 229 234 # N B N
816 2 230 231 232 # N B N
817 1 231 232 235 # B N B
818 1 231 232 349 # B N B
819 2 232 235 234 # N B N
820 2 232 235 236 # N B N
821 1 235 232 349 # B N B
822 2 232 349 354 # N B N
823 2 232 349 350 # N B N
824 1 233 238 237 # B N B
825 1 233 238 239 # B N B
826 1 233 234 235 # B N B
827 2 234 233 238 # N B N
828 2 234 235 236 # N B N
829 1 235 236 239 # B N B
830 1 235 236 353 # B N B
831 2 236 239 238 # N B N
832 2 236 239 240 # N B N
833 1 239 236 353 # B N B
834 2 236 353 358 # N B N
835 2 236 353 354 # N B N
836 1 237 238 239 # B N B
837 2 238 239 240 # N B N
838 1 239 240 357 # B N B
839 2 240 357 242 # N B N
840 2 240 357 358 # N B N
841 1 241 246 245 # B N B
842 1 241 246 247 # B N B
843 1 241 242 357 # B N B
844 1 241 242 243 # B N B
845 2 242 241 246 # N B N
846 2 242 357 358 # N B N
847 2 242 243 244 # N B N
848 2 242 243 360 # N B N
849 1 243 242 357 # B N B
850 1 243 244 247 # B N B
851 1 243 244 361 # B N B
852 2 244 243 360 # N B N
853 1 243 360 359 # B N B
854 1 243 360 477 # B N B
855 2 244 247 246 # N B N
856 2 244 247 248 # N B N
857 1 247 244 361 # B N B
858 2 244 361 362 # N B N
859 2 244 361 366 # N B N
860 1 245 250 249 # B N B
861 1 245 250 251 # B N B
862 1 245 246 247 # B N B
863 2 246 245 250 # N B N
864 2 246 247 248 # N B N
865 1 247 248 251 # B N B
866 1 247 248 365 # B N B
867 2 248 251 250 # N B N
868 2 248 251 252 # N B N
869 1 251 248 365 # B N B
870 2 248 365 366 # N B N
871 2 248 365 370 # N B N
872 1 249 254 253 # B N B
873 1 249 254 255 # B N B
874 1 249 250 251 # B N B
875 2 250 249 254 # N B N
876 2 250 251 252 # N B N
877 1 251 252 255 # B N B
878 1 251 252 369 # B N B
879 2 252 255 254 # N B N
880 2 252 255 256 # N B N
881 1 255 252 369 # B N B
882 2 252 369 370 # N B N
883 2 252 369 374 # N B N
884 1 253 258 257 # B N B
885 1 253 258 259 # B N B
886 1 253 254 255 # B N B
887 2 254 253 258 # N B N
888 2 254 255 256 # N B N
889 1 255 256 259 # B N B
890 1 255 256 373 # B N B
891 2 256 259 258 # N B N
892 2 256 259 260 # N B N
893 1 259 256 373 # B N B
894 2 256 373 374 # N B N
895 2 256 373 378 # N B N
896 1 257 262 261 # B N B
897 1 257 262 263 # B N B
898 1 257 258 259 # B N B
899 2 258 257 262 # N B N
900 2 258 259 260 # N B N
901 1 259 260 263 # B N B
902 1 259 260 377 # B N B
903 2 260 263 262 # N B N
904 2 260 263 264 # N B N
905 1 263 260 377 # B N B
906 2 260 377 378 # N B N
907 2 260 377 382 # N B N
908 1 261 266 265 # B N B
909 1 261 266 267 # B N B
910 1 261 262 263 # B N B
911 2 262 261 266 # N B N
912 2 262 263 264 # N B N
913 1 263 264 267 # B N B
914 1 263 264 381 # B N B
915 2 264 267 266 # N B N
916 2 264 267 268 # N B N
917 1 267 264 381 # B N B
918 2 264 381 382 # N B N
919 2 264 381 386 # N B N
920 1 265 270 269 # B N B
921 1 265 270 271 # B N B
922 1 265 266 267 # B N B
923 2 266 265 270 # N B N
924 2 266 267 268 # N B N
925 1 267 268 271 # B N B
926 1 267 268 385 # B N B
927 2 268 271 270 # N B N
928 2 268 271 272 # N B N
929 1 271 268 385 # B N B
930 2 268 385 386 # N B N
931 2 268 385 390 # N B N
932 1 269 274 273 # B N B
933 1 269 274 275 # B N B
934 1 269 270 271 # B N B
935 2 270 269 274 # N B N
936 2 270 271 272 # N B N
937 1 271 272 275 # B N B
938 1 271 272 389 # B N B
939 2 272 275 274 # N B N
940 2 272 275 276 # N B N
941 1 275 272 389 # B N B
942 2 272 389 390 # N B N
943 2 272 389 394 # N B N
944 1 273 278 277 # B N B
945 1 273 278 279 # B N B
946 1 273 274 275 # B N B
947 2 274 273 278 # N B N
948 2 274 275 276 # N B N
949 1 275 276 279 # B N B
950 1 275 276 393 # B N B
951 2 276 279 278 # N B N
952 2 276 279 280 # N B N
953 1 279 276 393 # B N B
954 2 276 393 394 # N B N
955 2 276 393 398 # N B N
956 1 277 282 281 # B N B
957 1 277 282 283 # B N B
958 1 277 278 279 # B N B
959 2 278 277 282 # N B N
960 2 278 279 280 # N B N
961 1 279 280 283 # B N B
962 1 279 280 397 # B N B
963 2 280 283 282 # N B N
964 2 280 283 284 # N B N
965 1 283 280 397 # B N B
966 2 280 397 398 # N B N
967 2 280 397 402 # N B N
968 1 281 286 285 # B N B
969 1 281 286 287 # B N B
970 1 281 282 283 # B N B
971 2 282 281 286 # N B N
972 2 282 283 284 # N B N
973 1 283 284 287 # B N B
974 1 283 284 401 # B N B
975 2 284 287 286 # N B N
976 2 284 287 288 # N B N
977 1 287 284 401 # B N B
978 2 284 401 402 # N B N
979 2 284 401 406 # N B N
980 1 285 290 289 # B N B
981 1 285 290 291 # B N B
982 1 285 286 287 # B N B
983 2 286 285 290 # N B N
984 2 286 287 288 # N B N
985 1 287 288 291 # B N B
986 1 287 288 405 # B N B
987 2 288 291 290 # N B N
988 2 288 291 292 # N B N
989 1 291 288 405 # B N B
990 2 288 405 406 # N B N
991 2 288 405 410 # N B N
992 1 289 294 293 # B N B
993 1 289 294 295 # B N B
994 1 289 290 291 # B N B
995 2 290 289 294 # N B N
996 2 290 291 292 # N B N
997 1 291 292 295 # B N B
998 1 291 292 409 # B N B
999 2 292 295 294 # N B N
1000 2 292 295 296 # N B N
1001 1 295 292 409 # B N B
1002 2 292 409 410 # N B N
1003 2 292 409 414 # N B N
1004 1 293 298 297 # B N B
1005 1 293 298 299 # B N B
1006 1 293 294 295 # B N B
1007 2 294 293 298 # N B N
1008 2 294 295 296 # N B N
1009 1 295 296 299 # B N B
1010 1 295 296 413 # B N B
1011 2 296 299 298 # N B N
1012 2 296 299 300 # N B N
1013 1 299 296 413 # B N B
1014 2 296 413 414 # N B N
1015 2 296 413 418 # N B N
1016 1 297 302 301 # B N B
1017 1 297 302 303 # B N B
1018 1 297 298 299 # B N B
1019 2 298 297 302 # N B N
1020 2 298 299 300 # N B N
1021 1 299 300 303 # B N B
1022 1 299 300 417 # B N B
1023 2 300 303 302 # N B N
1024 2 300 303 304 # N B N
1025 1 303 300 417 # B N B
1026 2 300 417 418 # N B N
1027 2 300 417 422 # N B N
1028 1 301 306 305 # B N B
1029 1 301 306 307 # B N B
1030 1 301 302 303 # B N B
1031 2 302 301 306 # N B N
1032 2 302 303 304 # N B N
1033 1 303 304 307 # B N B
1034 1 303 304 421 # B N B
1035 2 304 307 306 # N B N
1036 2 304 307 308 # N B N
1037 1 307 304 421 # B N B
1038 2 304 421 422 # N B N
1039 2 304 421 426 # N B N
1040 1 305 310 309 # B N B
1041 1 305 310 311 # B N B
1042 1 305 306 307 # B N B
1043 2 306 305 310 # N B N
1044 2 306 307 308 # N B N
1045 1 307 308 311 # B N B
1046 1 307 308 425 # B N B
1047 2 308 311 310 # N B N
1048 2 308 311 312 # N B N
1049 1 311 308 425 # B N B
1050 2 308 425 426 # N B N
1051 2 308 425 430 # N B N
1052 1 309 314 313 # B N B
1053 1 309 314 315 # B N B
1054 1 309 310 311 # B N B
1055 2 310 309 314 # N B N
1056 2 310 311 312 # N B N
1057 1 311 312 315 # B N B
1058 1 311 312 429 # B N B
1059 2 312 315 314 # N B N
1060 2 312 315 316 # N B N
1061 1 315 312 429 # B N B
1062 2 312 429 430 # N B N
1063 2 312 429 434 # N B N
1064 1 313 318 317 # B N B
1065 1 313 318 319 # B N B
1066 1 313 314 315 # B N B
1067 2 314 313 318 # N B N
1068 2 314 315 316 # N B N
1069 1 315 316 319 # B N B
1070 1 315 316 433 # B N B
1071 2 316 319 318 # N B N
1072 2 316 319 320 # N B N
1073 1 319 316 433 # B N B
1074 2 316 433 434 # N B N
1075 2 316 433 438 # N B N
1076 1 317 322 321 # B N B
1077 1 317 322 323 # B N B
1078 1 317 318 319 # B N B
1079 2 318 317 322 # N B N
1080 2 318 319 320 # N B N
1081 1 319 320 323 # B N B
1082 1 319 320 437 # B N B
1083 2 320 323 322 # N B N
1084 2 320 323 324 # N B N
1085 1 323 320 437 # B N B
1086 2 320 437 438 # N B N
1087 2 320 437 442 # N B N
1088 1 321 326 325 # B N B
1089 1 321 326 327 # B N B
1090 1 321 322 323 # B N B
1091 2 322 321 326 # N B N
1092 2 322 323 324 # N B N
1093 1 323 324 327 # B N B
1094 1 323 324 441 # B N B
1095 2 324 327 326 # N B N
1096 2 324 327 328 # N B N
1097 1 327 324 441 # B N B
1098 2 324 441 442 # N B N
1099 2 324 441 446 # N B N
1100 1 325 330 329 # B N B
1101 1 325 330 331 # B N B
1102 1 325 326 327 # B N B
1103 2 326 325 330 # N B N
1104 2 326 327 328 # N B N
1105 1 327 328 331 # B N B
1106 1 327 328 445 # B N B
1107 2 328 331 330 # N B N
1108 2 328 331 332 # N B N
1109 1 331 328 445 # B N B
1110 2 328 445 446 # N B N
1111 2 328 445 450 # N B N
1112 1 329 334 333 # B N B
1113 1 329 334 335 # B N B
1114 1 329 330 331 # B N B
1115 2 330 329 334 # N B N
1116 2 330 331 332 # N B N
1117 1 331 332 335 # B N B
1118 1 331 332 449 # B N B
1119 2 332 335 334 # N B N
1120 2 332 335 336 # N B N
1121 1 335 332 449 # B N B
1122 2 332 449 450 # N B N
1123 2 332 449 454 # N B N
1124 1 333 338 337 # B N B
1125 1 333 338 339 # B N B
1126 1 333 334 335 # B N B
1127 2 334 333 338 # N B N
1128 2 334 335 336 # N B N
1129 1 335 336 339 # B N B
1130 1 335 336 453 # B N B
1131 2 336 339 338 # N B N
1132 2 336 339 340 # N B N
1133 1 339 336 453 # B N B
1134 2 336 453 454 # N B N
1135 2 336 453 458 # N B N
1136 1 337 342 341 # B N B
1137 1 337 342 343 # B N B
1138 1 337 338 339 # B N B
1139 2 338 337 342 # N B N
1140 2 338 339 340 # N B N
1141 1 339 340 343 # B N B
1142 1 339 340 457 # B N B
1143 2 340 343 342 # N B N
1144 2 340 343 344 # N B N
1145 1 343 340 457 # B N B
1146 2 340 457 458 # N B N
1147 2 340 457 462 # N B N
1148 1 341 346 345 # B N B
1149 1 341 346 347 # B N B
1150 1 341 342 343 # B N B
1151 2 342 341 346 # N B N
1152 2 342 343 344 # N B N
1153 1 343 344 347 # B N B
1154 1 343 344 461 # B N B
1155 2 344 347 346 # N B N
1156 2 344 347 348 # N B N
1157 1 347 344 461 # B N B
1158 2 344 461 462 # N B N
1159 2 344 461 466 # N B N
1160 1 345 350 349 # B N B
1161 1 345 350 351 # B N B
1162 1 345 346 347 # B N B
1163 2 346 345 350 # N B N
1164 2 346 347 348 # N B N
1165 1 347 348 351 # B N B
1166 1 347 348 465 # B N B
1167 2 348 351 350 # N B N
1168 2 348 351 352 # N B N
1169 1 351 348 465 # B N B
1170 2 348 465 466 # N B N
1171 2 348 465 470 # N B N
1172 1 349 354 353 # B N B
1173 1 349 354 355 # B N B
1174 1 349 350 351 # B N B
1175 2 350 349 354 # N B N
1176 2 350 351 352 # N B N
1177 1 351 352 355 # B N B
1178 1 351 352 469 # B N B
1179 2 352 355 354 # N B N
1180 2 352 355 356 # N B N
1181 1 355 352 469 # B N B
1182 2 352 469 470 # N B N
1183 2 352 469 474 # N B N
1184 1 353 358 357 # B N B
1185 1 353 358 359 # B N B
1186 1 353 354 355 # B N B
1187 2 354 353 358 # N B N
1188 2 354 355 356 # N B N
1189 1 355 356 359 # B N B
1190 1 355 356 473 # B N B
1191 2 356 359 358 # N B N
1192 2 356 359 360 # N B N
1193 1 359 356 473 # B N B
1194 2 356 473 474 # N B N
1195 2 356 473 478 # N B N
1196 1 357 358 359 # B N B
1197 2 358 359 360 # N B N
1198 1 359 360 477 # B N B
1199 2 360 477 478 # N B N
1200 2 360 477 362 # N B N
1201 1 361 362 363 # B N B
1202 1 361 362 477 # B N B
1203 2 362 361 366 # N B N
1204 1 361 366 365 # B N B
1205 1 361 366 367 # B N B
1206 2 362 363 364 # N B N
1207 2 362 363 480 # N B N
1208 1 363 362 477 # B N B
1209 2 362 477 478 # N B N
1210 1 363 364 367 # B N B
1211 1 363 364 481 # B N B
1212 2 364 363 480 # N B N
1213 1 363 480 479 # B N B
1214 1 363 480 597 # B N B
1215 2 364 367 366 # N B N
1216 2 364 367 368 # N B N
1217 1 367 364 481 # B N B
1218 2 364 481 482 # N B N
1219 2 364 481 486 # N B N
1220 1 365 366 367 # B N B
1221 2 366 365 370 # N B N
1222 1 365 370 369 # B N B
1223 1 365 370 371 # B N B
1224 2 366 367 368 # N B N
1225 1 367 368 371 # B N B
1226 1 367 368 485 # B N B
1227 2 368 371 370 # N B N
1228 2 368 371 372 # N B N
1229 1 371 368 485 # B N B
1230 2 368 485 486 # N B N
1231 2 368 485 490 # N B N
1232 1 369 370 371 # B N B
1233 2 370 369 374 # N B N
1234 1 369 374 373 # B N B
1235 1 369 374 375 # B N B
1236 2 370 371 372 # N B N
1237 1 371 372 375 # B N B
1238 1 371 372 489 # B N B
1239 2 372 375 374 # N B N
1240 2 372 375 376 # N B N
1241 1 375 372 489 # B N B
1242 2 372 489 490 # N B N
1243 2 372 489 494 # N B N
1244 1 373 374 375 # B N B
1245 2 374 373 378 # N B N
1246 1 373 378 377 # B N B
1247 1 373 378 379 # B N B
1248 2 374 375 376 # N B N
1249 1 375 376 379 # B N B
1250 1 375 376 493 # B N B
1251 2 376 379 378 # N B N
1252 2 376 379 380 # N B N
1253 1 379 376 493 # B N B
1254 2 376 493 494 # N B N
1255 2 376 493 498 # N B N
1256 1 377 378 379 # B N B
1257 2 378 377 382 # N B N
1258 1 377 382 381 # B N B
1259 1 377 382 383 # B N B
1260 2 378 379 380 # N B N
1261 1 379 380 383 # B N B
1262 1 379 380 497 # B N B
1263 2 380 383 382 # N B N
1264 2 380 383 384 # N B N
1265 1 383 380 497 # B N B
1266 2 380 497 498 # N B N
1267 2 380 497 502 # N B N
1268 1 381 382 383 # B N B
1269 2 382 381 386 # N B N
1270 1 381 386 385 # B N B
1271 1 381 386 387 # B N B
1272 2 382 383 384 # N B N
1273 1 383 384 387 # B N B
1274 1 383 384 501 # B N B
1275 2 384 387 386 # N B N
1276 2 384 387 388 # N B N
1277 1 387 384 501 # B N B
1278 2 384 501 502 # N B N
1279 2 384 501 506 # N B N
1280 1 385 386 387 # B N B
1281 2 386 385 390 # N B N
1282 1 385 390 389 # B N B
1283 1 385 390 391 # B N B
1284 2 386 387 388 # N B N
1285 1 387 388 391 # B N B
1286 1 387 388 505 # B N B
1287 2 388 391 390 # N B N
1288 2 388 391 392 # N B N
1289 1 391 388 505 # B N B
1290 2 388 505 506 # N B N
1291 2 388 505 510 # N B N
1292 1 389 390 391 # B N B
1293 2 390 389 394 # N B N
1294 1 389 394 393 # B N B
1295 1 389 394 395 # B N B
1296 2 390 391 392 # N B N
1297 1 391 392 395 # B N B
1298 1 391 392 509 # B N B
1299 2 392 395 394 # N B N
1300 2 392 395 396 # N B N
1301 1 395 392 509 # B N B
1302 2 392 509 510 # N B N
1303 2 392 509 514 # N B N
1304 1 393 394 395 # B N B
1305 2 394 393 398 # N B N
1306 1 393 398 397 # B N B
1307 1 393 398 399 # B N B
1308 2 394 395 396 # N B N
1309 1 395 396 399 # B N B
1310 1 395 396 513 # B N B
1311 2 396 399 398 # N B N
1312 2 396 399 400 # N B N
1313 1 399 396 513 # B N B
1314 2 396 513 514 # N B N
1315 2 396 513 518 # N B N
1316 1 397 398 399 # B N B
1317 2 398 397 402 # N B N
1318 1 397 402 401 # B N B
1319 1 397 402 403 # B N B
1320 2 398 399 400 # N B N
1321 1 399 400 403 # B N B
1322 1 399 400 517 # B N B
1323 2 400 403 402 # N B N
1324 2 400 403 404 # N B N
1325 1 403 400 517 # B N B
1326 2 400 517 518 # N B N
1327 2 400 517 522 # N B N
1328 1 401 402 403 # B N B
1329 2 402 401 406 # N B N
1330 1 401 406 405 # B N B
1331 1 401 406 407 # B N B
1332 2 402 403 404 # N B N
1333 1 403 404 407 # B N B
1334 1 403 404 521 # B N B
1335 2 404 407 406 # N B N
1336 2 404 407 408 # N B N
1337 1 407 404 521 # B N B
1338 2 404 521 522 # N B N
1339 2 404 521 526 # N B N
1340 1 405 406 407 # B N B
1341 2 406 405 410 # N B N
1342 1 405 410 409 # B N B
1343 1 405 410 411 # B N B
1344 2 406 407 408 # N B N
1345 1 407 408 411 # B N B
1346 1 407 408 525 # B N B
1347 2 408 411 410 # N B N
1348 2 408 411 412 # N B N
1349 1 411 408 525 # B N B
1350 2 408 525 526 # N B N
1351 2 408 525 530 # N B N
1352 1 409 410 411 # B N B
1353 2 410 409 414 # N B N
1354 1 409 414 413 # B N B
1355 1 409 414 415 # B N B
1356 2 410 411 412 # N B N
1357 1 411 412 415 # B N B
1358 1 411 412 529 # B N B
1359 2 412 415 414 # N B N
1360 2 412 415 416 # N B N
1361 1 415 412 529 # B N B
1362 2 412 529 530 # N B N
1363 2 412 529 534 # N B N
1364 1 413 414 415 # B N B
1365 2 414 413 418 # N B N
1366 1 413 418 417 # B N B
1367 1 413 418 419 # B N B
1368 2 414 415 416 # N B N
1369 1 415 416 419 # B N B
1370 1 415 416 533 # B N B
1371 2 416 419 418 # N B N
1372 2 416 419 420 # N B N
1373 1 419 416 533 # B N B
1374 2 416 533 534 # N B N
1375 2 416 533 538 # N B N
1376 1 417 418 419 # B N B
1377 2 418 417 422 # N B N
1378 1 417 422 421 # B N B
1379 1 417 422 423 # B N B
1380 2 418 419 420 # N B N
1381 1 419 420 423 # B N B
1382 1 419 420 537 # B N B
1383 2 420 423 422 # N B N
1384 2 420 423 424 # N B N
1385 1 423 420 537 # B N B
1386 2 420 537 538 # N B N
1387 2 420 537 542 # N B N
1388 1 421 422 423 # B N B
1389 2 422 421 426 # N B N
1390 1 421 426 425 # B N B
1391 1 421 426 427 # B N B
1392 2 422 423 424 # N B N
1393 1 423 424 427 # B N B
1394 1 423 424 541 # B N B
1395 2 424 427 426 # N B N
1396 2 424 427 428 # N B N
1397 1 427 424 541 # B N B
1398 2 424 541 542 # N B N
1399 2 424 541 546 # N B N
1400 1 425 426 427 # B N B
1401 2 426 425 430 # N B N
1402 1 425 430 429 # B N B
1403 1 425 430 431 # B N B
1404 2 426 427 428 # N B N
1405 1 427 428 431 # B N B
1406 1 427 428 545 # B N B
1407 2 428 431 430 # N B N
1408 2 428 431 432 # N B N
1409 1 431 428 545 # B N B
1410 2 428 545 546 # N B N
1411 2 428 545 550 # N B N
1412 1 429 430 431 # B N B
1413 2 430 429 434 # N B N
1414 1 429 434 433 # B N B
1415 1 429 434 435 # B N B
1416 2 430 431 432 # N B N
1417 1 431 432 435 # B N B
1418 1 431 432 549 # B N B
1419 2 432 435 434 # N B N
1420 2 432 435 436 # N B N
1421 1 435 432 549 # B N B
1422 2 432 549 550 # N B N
1423 2 432 549 554 # N B N
1424 1 433 434 435 # B N B
1425 2 434 433 438 # N B N
1426 1 433 438 437 # B N B
1427 1 433 438 439 # B N B
1428 2 434 435 436 # N B N
1429 1 435 436 439 # B N B
1430 1 435 436 553 # B N B
1431 2 436 439 438 # N B N
1432 2 436 439 440 # N B N
1433 1 439 436 553 # B N B
1434 2 436 553 554 # N B N
1435 2 436 553 558 # N B N
1436 1 437 438 439 # B N B
1437 2 438 437 442 # N B N
1438 1 437 442 441 # B N B
1439 1 437 442 443 # B N B
1440 2 438 439 440 # N B N
1441 1 439 440 443 # B N B
1442 1 439 440 557 # B N B
1443 2 440 443 442 # N B N
1444 2 440 443 444 # N B N
1445 1 443 440 557 # B N B
1446 2 440 557 558 # N B N
1447 2 440 557 562 # N B N
1448 1 441 442 443 # B N B
1449 2 442 441 446 # N B N
1450 1 441 446 445 # B N B
1451 1 441 446 447 # B N B
1452 2 442 443 444 # N B N
1453 1 443 444 447 # B N B
1454 1 443 444 561 # B N B
1455 2 444 447 446 # N B N
1456 2 444 447 448 # N B N
1457 1 447 444 561 # B N B
1458 2 444 561 562 # N B N
1459 2 444 561 566 # N B N
1460 1 445 446 447 # B N B
1461 2 446 445 450 # N B N
1462 1 445 450 449 # B N B
1463 1 445 450 451 # B N B
1464 2 446 447 448 # N B N
1465 1 447 448 451 # B N B
1466 1 447 448 565 # B N B
1467 2 448 451 450 # N B N
1468 2 448 451 452 # N B N
1469 1 451 448 565 # B N B
1470 2 448 565 566 # N B N
1471 2 448 565 570 # N B N
1472 1 449 450 451 # B N B
1473 2 450 449 454 # N B N
1474 1 449 454 453 # B N B
1475 1 449 454 455 # B N B
1476 2 450 451 452 # N B N
1477 1 451 452 455 # B N B
1478 1 451 452 569 # B N B
1479 2 452 455 454 # N B N
1480 2 452 455 456 # N B N
1481 1 455 452 569 # B N B
1482 2 452 569 570 # N B N
1483 2 452 569 574 # N B N
1484 1 453 454 455 # B N B
1485 2 454 453 458 # N B N
1486 1 453 458 457 # B N B
1487 1 453 458 459 # B N B
1488 2 454 455 456 # N B N
1489 1 455 456 459 # B N B
1490 1 455 456 573 # B N B
1491 2 456 459 458 # N B N
1492 2 456 459 460 # N B N
1493 1 459 456 573 # B N B
1494 2 456 573 574 # N B N
1495 2 456 573 578 # N B N
1496 1 457 458 459 # B N B
1497 2 458 457 462 # N B N
1498 1 457 462 461 # B N B
1499 1 457 462 463 # B N B
1500 2 458 459 460 # N B N
1501 1 459 460 463 # B N B
1502 1 459 460 577 # B N B
1503 2 460 463 462 # N B N
1504 2 460 463 464 # N B N
1505 1 463 460 577 # B N B
1506 2 460 577 578 # N B N
1507 2 460 577 582 # N B N
1508 1 461 462 463 # B N B
1509 2 462 461 466 # N B N
1510 1 461 466 465 # B N B
1511 1 461 466 467 # B N B
1512 2 462 463 464 # N B N
1513 1 463 464 467 # B N B
1514 1 463 464 581 # B N B
1515 2 464 467 466 # N B N
1516 2 464 467 468 # N B N
1517 1 467 464 581 # B N B
1518 2 464 581 582 # N B N
1519 2 464 581 586 # N B N
1520 1 465 466 467 # B N B
1521 2 466 465 470 # N B N
1522 1 465 470 469 # B N B
1523 1 465 470 471 # B N B
1524 2 466 467 468 # N B N
1525 1 467 468 471 # B N B
1526 1 467 468 585 # B N B
1527 2 468 471 470 # N B N
1528 2 468 471 472 # N B N
1529 1 471 468 585 # B N B
1530 2 468 585 586 # N B N
1531 2 468 585 590 # N B N
1532 1 469 470 471 # B N B
1533 2 470 469 474 # N B N
1534 1 469 474 473 # B N B
1535 1 469 474 475 # B N B
1536 2 470 471 472 # N B N
1537 1 471 472 475 # B N B
1538 1 471 472 589 # B N B
1539 2 472 475 474 # N B N
1540 2 472 475 476 # N B N
1541 1 475 472 589 # B N B
1542 2 472 589 590 # N B N
1543 2 472 589 594 # N B N
1544 1 473 474 475 # B N B
1545 2 474 473 478 # N B N
1546 1 473 478 477 # B N B
1547 1 473 478 479 # B N B
1548 2 474 475 476 # N B N
1549 1 475 476 479 # B N B
1550 1 475 476 593 # B N B
1551 2 476 479 478 # N B N
1552 2 476 479 480 # N B N
1553 1 479 476 593 # B N B
1554 2 476 593 594 # N B N
1555 2 476 593 598 # N B N
1556 1 477 478 479 # B N B
1557 2 478 479 480 # N B N
1558 1 479 480 597 # B N B
1559 2 480 597 598 # N B N
1560 2 480 597 482 # N B N
1561 1 481 482 483 # B N B
1562 1 481 482 597 # B N B
1563 2 482 481 486 # N B N
1564 1 481 486 485 # B N B
1565 1 481 486 487 # B N B
1566 2 482 483 484 # N B N
1567 2 482 483 600 # N B N
1568 1 483 482 597 # B N B
1569 2 482 597 598 # N B N
1570 1 483 484 487 # B N B
1571 1 483 484 601 # B N B
1572 2 484 483 600 # N B N
1573 1 483 600 599 # B N B
1574 1 483 600 717 # B N B
1575 2 484 487 486 # N B N
1576 2 484 487 488 # N B N
1577 1 487 484 601 # B N B
1578 2 484 601 606 # N B N
1579 2 484 601 602 # N B N
1580 1 485 486 487 # B N B
1581 2 486 485 490 # N B N
1582 1 485 490 489 # B N B
1583 1 485 490 491 # B N B
1584 2 486 487 488 # N B N
1585 1 487 488 491 # B N B
1586 1 487 488 605 # B N B
1587 2 488 491 490 # N B N
1588 2 488 491 492 # N B N
1589 1 491 488 605 # B N B
1590 2 488 605 610 # N B N
1591 2 488 605 606 # N B N
1592 1 489 490 491 # B N B
1593 2 490 489 494 # N B N
1594 1 489 494 493 # B N B
1595 1 489 494 495 # B N B
1596 2 490 491 492 # N B N
1597 1 491 492 495 # B N B
1598 1 491 492 609 # B N B
1599 2 492 495 494 # N B N
1600 2 492 495 496 # N B N
1601 1 495 492 609 # B N B
1602 2 492 609 614 # N B N
1603 2 492 609 610 # N B N
1604 1 493 494 495 # B N B
1605 2 494 493 498 # N B N
1606 1 493 498 497 # B N B
1607 1 493 498 499 # B N B
1608 2 494 495 496 # N B N
1609 1 495 496 499 # B N B
1610 1 495 496 613 # B N B
1611 2 496 499 498 # N B N
1612 2 496 499 500 # N B N
1613 1 499 496 613 # B N B
1614 2 496 613 618 # N B N
1615 2 496 613 614 # N B N
1616 1 497 498 499 # B N B
1617 2 498 497 502 # N B N
1618 1 497 502 501 # B N B
1619 1 497 502 503 # B N B
1620 2 498 499 500 # N B N
1621 1 499 500 503 # B N B
1622 1 499 500 617 # B N B
1623 2 500 503 502 # N B N
1624 2 500 503 504 # N B N
1625 1 503 500 617 # B N B
1626 2 500 617 622 # N B N
1627 2 500 617 618 # N B N
1628 1 501 502 503 # B N B
1629 2 502 501 506 # N B N
1630 1 501 506 505 # B N B
1631 1 501 506 507 # B N B
1632 2 502 503 504 # N B N
1633 1 503 504 507 # B N B
1634 1 503 504 621 # B N B
1635 2 504 507 506 # N B N
1636 2 504 507 508 # N B N
1637 1 507 504 621 # B N B
1638 2 504 621 626 # N B N
1639 2 504 621 622 # N B N
1640 1 505 506 507 # B N B
1641 2 506 505 510 # N B N
1642 1 505 510 509 # B N B
1643 1 505 510 511 # B N B
1644 2 506 507 508 # N B N
1645 1 507 508 511 # B N B
1646 1 507 508 625 # B N B
1647 2 508 511 510 # N B N
1648 2 508 511 512 # N B N
1649 1 511 508 625 # B N B
1650 2 508 625 630 # N B N
1651 2 508 625 626 # N B N
1652 1 509 510 511 # B N B
1653 2 510 509 514 # N B N
1654 1 509 514 513 # B N B
1655 1 509 514 515 # B N B
1656 2 510 511 512 # N B N
1657 1 511 512 515 # B N B
1658 1 511 512 629 # B N B
1659 2 512 515 514 # N B N
1660 2 512 515 516 # N B N
1661 1 515 512 629 # B N B
1662 2 512 629 634 # N B N
1663 2 512 629 630 # N B N
1664 1 513 514 515 # B N B
1665 2 514 513 518 # N B N
1666 1 513 518 517 # B N B
1667 1 513 518 519 # B N B
1668 2 514 515 516 # N B N
1669 1 515 516 519 # B N B
1670 1 515 516 633 # B N B
1671 2 516 519 518 # N B N
1672 2 516 519 520 # N B N
1673 1 519 516 633 # B N B
1674 2 516 633 638 # N B N
1675 2 516 633 634 # N B N
1676 1 517 518 519 # B N B
1677 2 518 517 522 # N B N
1678 1 517 522 521 # B N B
1679 1 517 522 523 # B N B
1680 2 518 519 520 # N B N
1681 1 519 520 523 # B N B
1682 1 519 520 637 # B N B
1683 2 520 523 522 # N B N
1684 2 520 523 524 # N B N
1685 1 523 520 637 # B N B
1686 2 520 637 642 # N B N
1687 2 520 637 638 # N B N
1688 1 521 522 523 # B N B
1689 2 522 521 526 # N B N
1690 1 521 526 525 # B N B
1691 1 521 526 527 # B N B
1692 2 522 523 524 # N B N
1693 1 523 524 527 # B N B
1694 1 523 524 641 # B N B
1695 2 524 527 526 # N B N
1696 2 524 527 528 # N B N
1697 1 527 524 641 # B N B
1698 2 524 641 646 # N B N
1699 2 524 641 642 # N B N
1700 1 525 526 527 # B N B
1701 2 526 525 530 # N B N
1702 1 525 530 529 # B N B
1703 1 525 530 531 # B N B
1704 2 526 527 528 # N B N
1705 1 527 528 531 # B N B
1706 1 527 528 645 # B N B
1707 2 528 531 530 # N B N
1708 2 528 531 532 # N B N
1709 1 531 528 645 # B N B
1710 2 528 645 650 # N B N
1711 2 528 645 646 # N B N
1712 1 529 530 531 # B N B
1713 2 530 529 534 # N B N
1714 1 529 534 533 # B N B
1715 1 529 534 535 # B N B
1716 2 530 531 532 # N B N
1717 1 531 532 535 # B N B
1718 1 531 532 649 # B N B
1719 2 532 535 534 # N B N
1720 2 532 535 536 # N B N
1721 1 535 532 649 # B N B
1722 2 532 649 654 # N B N
1723 2 532 649 650 # N B N
1724 1 533 534 535 # B N B
1725 2 534 533 538 # N B N
1726 1 533 538 537 # B N B
1727 1 533 538 539 # B N B
1728 2 534 535 536 # N B N
1729 1 535 536 539 # B N B
1730 1 535 536 653 # B N B
1731 2 536 539 538 # N B N
1732 2 536 539 540 # N B N
1733 1 539 536 653 # B N B
1734 2 536 653 658 # N B N
1735 2 536 653 654 # N B N
1736 1 537 538 539 # B N B
1737 2 538 537 542 # N B N
1738 1 537 542 541 # B N B
1739 1 537 542 543 # B N B
1740 2 538 539 540 # N B N
1741 1 539 540 543 # B N B
1742 1 539 540 657 # B N B
1743 2 540 543 542 # N B N
1744 2 540 543 544 # N B N
1745 1 543 540 657 # B N B
1746 2 540 657 662 # N B N
1747 2 540 657 658 # N B N
1748 1 541 542 543 # B N B
1749 2 542 541 546 # N B N
1750 1 541 546 545 # B N B
1751 1 541 546 547 # B N B
1752 2 542 543 544 # N B N
1753 1 543 544 547 # B N B
1754 1 543 544 661 # B N B
1755 2 544 547 546 # N B N
1756 2 544 547 548 # N B N
1757 1 547 544 661 # B N B
1758 2 544 661 666 # N B N
1759 2 544 661 662 # N B N
1760 1 545 546 547 # B N B
1761 2 546 545 550 # N B N
1762 1 545 550 549 # B N B
1763 1 545 550 551 # B N B
1764 2 546 547 548 # N B N
1765 1 547 548 551 # B N B
1766 1 547 548 665 # B N B
1767 2 548 551 550 # N B N
1768 2 548 551 552 # N B N
1769 1 551 548 665 # B N B
1770 2 548 665 670 # N B N
1771 2 548 665 666 # N B N
1772 1 549 550 551 # B N B
1773 2 550 549 554 # N B N
1774 1 549 554 553 # B N B
1775 1 549 554 555 # B N B
1776 2 550 551 552 # N B N
1777 1 551 552 555 # B N B
1778 1 551 552 669 # B N B
1779 2 552 555 554 # N B N
1780 2 552 555 556 # N B N
1781 1 555 552 669 # B N B
1782 2 552 669 674 # N B N
1783 2 552 669 670 # N B N
1784 1 553 554 555 # B N B
1785 2 554 553 558 # N B N
1786 1 553 558 557 # B N B
1787 1 553 558 559 # B N B
1788 2 554 555 556 # N B N
1789 1 555 556 559 # B N B
1790 1 555 556 673 # B N B
1791 2 556 559 558 # N B N
1792 2 556 559 560 # N B N
1793 1 559 556 673 # B N B
1794 2 556 673 678 # N B N
1795 2 556 673 674 # N B N
1796 1 557 558 559 # B N B
1797 2 558 557 562 # N B N
1798 1 557 562 561 # B N B
1799 1 557 562 563 # B N B
1800 2 558 559 560 # N B N
1801 1 559 560 563 # B N B
1802 1 559 560 677 # B N B
1803 2 560 563 562 # N B N
1804 2 560 563 564 # N B N
1805 1 563 560 677 # B N B
1806 2 560 677 682 # N B N
1807 2 560 677 678 # N B N
1808 1 561 562 563 # B N B
1809 2 562 561 566 # N B N
1810 1 561 566 565 # B N B
1811 1 561 566 567 # B N B
1812 2 562 563 564 # N B N
1813 1 563 564 567 # B N B
1814 1 563 564 681 # B N B
1815 2 564 567 566 # N B N
1816 2 564 567 568 # N B N
1817 1 567 564 681 # B N B
1818 2 564 681 686 # N B N
1819 2 564 681 682 # N B N
1820 1 565 566 567 # B N B
1821 2 566 565 570 # N B N
1822 1 565 570 569 # B N B
1823 1 565 570 571 # B N B
1824 2 566 567 568 # N B N
1825 1 567 568 571 # B N B
1826 1 567 568 685 # B N B
1827 2 568 571 570 # N B N
1828 2 568 571 572 # N B N
1829 1 571 568 685 # B N B
1830 2 568 685 690 # N B N
1831 2 568 685 686 # N B N
1832 1 569 570 571 # B N B
1833 2 570 569 574 # N B N
1834 1 569 574 573 # B N B
1835 1 569 574 575 # B N B
1836 2 570 571 572 # N B N
1837 1 571 572 575 # B N B
1838 1 571 572 689 # B N B
1839 2 572 575 574 # N B N
1840 2 572 575 576 # N B N
1841 1 575 572 689 # B N B
1842 2 572 689 694 # N B N
1843 2 572 689 690 # N B N
1844 1 573 574 575 # B N B
1845 2 574 573 578 # N B N
1846 1 573 578 577 # B N B
1847 1 573 578 579 # B N B
1848 2 574 575 576 # N B N
1849 1 575 576 579 # B N B
1850 1 575 576 693 # B N B
1851 2 576 579 578 # N B N
1852 2 576 579 580 # N B N
1853 1 579 576 693 # B N B
1854 2 576 693 698 # N B N
1855 2 576 693 694 # N B N
1856 1 577 578 579 # B N B
1857 2 578 577 582 # N B N
1858 1 577 582 581 # B N B
1859 1 577 582 583 # B N B
1860 2 578 579 580 # N B N
1861 1 579 580 583 # B N B
1862 1 579 580 697 # B N B
1863 2 580 583 582 # N B N
1864 2 580 583 584 # N B N
1865 1 583 580 697 # B N B
1866 2 580 697 702 # N B N
1867 2 580 697 698 # N B N
1868 1 581 582 583 # B N B
1869 2 582 581 586 # N B N
1870 1 581 586 585 # B N B
1871 1 581 586 587 # B N B
1872 2 582 583 584 # N B N
1873 1 583 584 587 # B N B
1874 1 583 584 701 # B N B
1875 2 584 587 586 # N B N
1876 2 584 587 588 # N B N
1877 1 587 584 701 # B N B
1878 2 584 701 706 # N B N
1879 2 584 701 702 # N B N
1880 1 585 586 587 # B N B
1881 2 586 585 590 # N B N
1882 1 585 590 589 # B N B
1883 1 585 590 591 # B N B
1884 2 586 587 588 # N B N
1885 1 587 588 591 # B N B
1886 1 587 588 705 # B N B
1887 2 588 591 590 # N B N
1888 2 588 591 592 # N B N
1889 1 591 588 705 # B N B
1890 2 588 705 710 # N B N
1891 2 588 705 706 # N B N
1892 1 589 590 591 # B N B
1893 2 590 589 594 # N B N
1894 1 589 594 593 # B N B
1895 1 589 594 595 # B N B
1896 2 590 591 592 # N B N
1897 1 591 592 595 # B N B
1898 1 591 592 709 # B N B
1899 2 592 595 594 # N B N
1900 2 592 595 596 # N B N
1901 1 595 592 709 # B N B
1902 2 592 709 714 # N B N
1903 2 592 709 710 # N B N
1904 1 593 594 595 # B N B
1905 2 594 593 598 # N B N
1906 1 593 598 597 # B N B
1907 1 593 598 599 # B N B
1908 2 594 595 596 # N B N
1909 1 595 596 599 # B N B
1910 1 595 596 713 # B N B
1911 2 596 599 598 # N B N
1912 2 596 599 600 # N B N
1913 1 599 596 713 # B N B
1914 2 596 713 718 # N B N
1915 2 596 713 714 # N B N
1916 1 597 598 599 # B N B
1917 2 598 599 600 # N B N
1918 1 599 600 717 # B N B
1919 2 600 717 602 # N B N
1920 2 600 717 718 # N B N
1921 1 601 606 605 # B N B
1922 1 601 606 607 # B N B
1923 1 601 602 717 # B N B
1924 1 601 602 603 # B N B
1925 2 602 601 606 # N B N
1926 2 602 717 718 # N B N
1927 2 602 603 604 # N B N
1928 2 602 603 720 # N B N
1929 1 603 602 717 # B N B
1930 1 603 604 607 # B N B
1931 1 603 604 721 # B N B
1932 2 604 603 720 # N B N
1933 1 603 720 719 # B N B
1934 1 603 720 837 # B N B
1935 2 604 607 606 # N B N
1936 2 604 607 608 # N B N
1937 1 607 604 721 # B N B
1938 2 604 721 726 # N B N
1939 2 604 721 722 # N B N
1940 1 605 610 609 # B N B
1941 1 605 610 611 # B N B
1942 1 605 606 607 # B N B
1943 2 606 605 610 # N B N
1944 2 606 607 608 # N B N
1945 1 607 608 611 # B N B
1946 1 607 608 725 # B N B
1947 2 608 611 610 # N B N
1948 2 608 611 612 # N B N
1949 1 611 608 725 # B N B
1950 2 608 725 730 # N B N
1951 2 608 725 726 # N B N
1952 1 609 614 613 # B N B
1953 1 609 614 615 # B N B
1954 1 609 610 611 # B N B
1955 2 610 609 614 # N B N
1956 2 610 611 612 # N B N
1957 1 611 612 615 # B N B
1958 1 611 612 729 # B N B
1959 2 612 615 614 # N B N
1960 2 612 615 616 # N B N
1961 1 615 612 729 # B N B
1962 2 612 729 734 # N B N
1963 2 612 729 730 # N B N
1964 1 613 618 617 # B N B
1965 1 613 618 619 # B N B
1966 1 613 614 615 # B N B
1967 2 614 613 618 # N B N
1968 2 614 615 616 # N B N
1969 1 615 616 619 # B N B
1970 1 615 616 733 # B N B
1971 2 616 619 618 # N B N
1972 2 616 619 620 # N B N
1973 1 619 616 733 # B N B
1974 2 616 733 738 # N B N
1975 2 616 733 734 # N B N
1976 1 617 622 621 # B N B
1977 1 617 622 623 # B N B
1978 1 617 618 619 # B N B
1979 2 618 617 622 # N B N
1980 2 618 619 620 # N B N
1981 1 619 620 623 # B N B
1982 1 619 620 737 # B N B
1983 2 620 623 622 # N B N
1984 2 620 623 624 # N B N
1985 1 623 620 737 # B N B
1986 2 620 737 742 # N B N
1987 2 620 737 738 # N B N
1988 1 621 626 625 # B N B
1989 1 621 626 627 # B N B
1990 1 621 622 623 # B N B
1991 2 622 621 626 # N B N
1992 2 622 623 624 # N B N
1993 1 623 624 627 # B N B
1994 1 623 624 741 # B N B
1995 2 624 627 626 # N B N
1996 2 624 627 628 # N B N
1997 1 627 624 741 # B N B
1998 2 624 741 746 # N B N
1999 2 624 741 742 # N B N
2000 1 625 630 629 # B N B
2001 1 625 630 631 # B N B
2002 1 625 626 627 # B N B
2003 2 626 625 630 # N B N
2004 2 626 627 628 # N B N
2005 1 627 628 631 # B N B
2006 1 627 628 745 # B N B
2007 2 628 631 630 # N B N
2008 2 628 631 632 # N B N
2009 1 631 628 745 # B N B
2010 2 628 745 750 # N B N
2011 2 628 745 746 # N B N
2012 1 629 634 633 # B N B
2013 1 629 634 635 # B N B
2014 1 629 630 631 # B N B
2015 2 630 629 634 # N B N
2016 2 630 631 632 # N B N
2017 1 631 632 635 # B N B
2018 1 631 632 749 # B N B
2019 2 632 635 634 # N B N
2020 2 632 635 636 # N B N
2021 1 635 632 749 # B N B
2022 2 632 749 754 # N B N
2023 2 632 749 750 # N B N
2024 1 633 638 637 # B N B
2025 1 633 638 639 # B N B
2026 1 633 634 635 # B N B
2027 2 634 633 638 # N B N
2028 2 634 635 636 # N B N
2029 1 635 636 639 # B N B
2030 1 635 636 753 # B N B
2031 2 636 639 638 # N B N
2032 2 636 639 640 # N B N
2033 1 639 636 753 # B N B
2034 2 636 753 758 # N B N
2035 2 636 753 754 # N B N
2036 1 637 642 641 # B N B
2037 1 637 642 643 # B N B
2038 1 637 638 639 # B N B
2039 2 638 637 642 # N B N
2040 2 638 639 640 # N B N
2041 1 639 640 643 # B N B
2042 1 639 640 757 # B N B
2043 2 640 643 642 # N B N
2044 2 640 643 644 # N B N
2045 1 643 640 757 # B N B
2046 2 640 757 762 # N B N
2047 2 640 757 758 # N B N
2048 1 641 646 645 # B N B
2049 1 641 646 647 # B N B
2050 1 641 642 643 # B N B
2051 2 642 641 646 # N B N
2052 2 642 643 644 # N B N
2053 1 643 644 647 # B N B
2054 1 643 644 761 # B N B
2055 2 644 647 646 # N B N
2056 2 644 647 648 # N B N
2057 1 647 644 761 # B N B
2058 2 644 761 766 # N B N
2059 2 644 761 762 # N B N
2060 1 645 650 649 # B N B
2061 1 645 650 651 # B N B
2062 1 645 646 647 # B N B
2063 2 646 645 650 # N B N
2064 2 646 647 648 # N B N
2065 1 647 648 651 # B N B
2066 1 647 648 765 # B N B
2067 2 648 651 650 # N B N
2068 2 648 651 652 # N B N
2069 1 651 648 765 # B N B
2070 2 648 765 770 # N B N
2071 2 648 765 766 # N B N
2072 1 649 654 653 # B N B
2073 1 649 654 655 # B N B
2074 1 649 650 651 # B N B
2075 2 650 649 654 # N B N
2076 2 650 651 652 # N B N
2077 1 651 652 655 # B N B
2078 1 651 652 769 # B N B
2079 2 652 655 654 # N B N
2080 2 652 655 656 # N B N
2081 1 655 652 769 # B N B
2082 2 652 769 774 # N B N
2083 2 652 769 770 # N B N
2084 1 653 658 657 # B N B
2085 1 653 658 659 # B N B
2086 1 653 654 655 # B N B
2087 2 654 653 658 # N B N
2088 2 654 655 656 # N B N
2089 1 655 656 659 # B N B
2090 1 655 656 773 # B N B
2091 2 656 659 658 # N B N
2092 2 656 659 660 # N B N
2093 1 659 656 773 # B N B
2094 2 656 773 778 # N B N
2095 2 656 773 774 # N B N
2096 1 657 662 661 # B N B
2097 1 657 662 663 # B N B
2098 1 657 658 659 # B N B
2099 2 658 657 662 # N B N
2100 2 658 659 660 # N B N
2101 1 659 660 663 # B N B
2102 1 659 660 777 # B N B
2103 2 660 663 662 # N B N
2104 2 660 663 664 # N B N
2105 1 663 660 777 # B N B
2106 2 660 777 782 # N B N
2107 2 660 777 778 # N B N
2108 1 661 666 665 # B N B
2109 1 661 666 667 # B N B
2110 1 661 662 663 # B N B
2111 2 662 661 666 # N B N
2112 2 662 663 664 # N B N
2113 1 663 664 667 # B N B
2114 1 663 664 781 # B N B
2115 2 664 667 666 # N B N
2116 2 664 667 668 # N B N
2117 1 667 664 781 # B N B
2118 2 664 781 786 # N B N
2119 2 664 781 782 # N B N
2120 1 665 670 669 # B N B
2121 1 665 670 671 # B N B
2122 1 665 666 667 # B N B
2123 2 666 665 670 # N B N
2124 2 666 667 668 # N B N
2125 1 667 668 671 # B N B
2126 1 667 668 785 # B N B
2127 2 668 671 670 # N B N
2128 2 668 671 672 # N B N
2129 1 671 668 785 # B N B
2130 2 668 785 790 # N B N
2131 2 668 785 786 # N B N
2132 1 669 674 673 # B N B
2133 1 669 674 675 # B N B
2134 1 669 670 671 # B N B
2135 2 670 669 674 # N B N
2136 2 670 671 672 # N B N
2137 1 671 672 675 # B N B
2138 1 671 672 789 # B N B
2139 2 672 675 674 # N B N
2140 2 672 675 676 # N B N
2141 1 675 672 789 # B N B
2142 2 672 789 794 # N B N
2143 2 672 789 790 # N B N
2144 1 673 678 677 # B N B
2145 1 673 678 679 # B N B
2146 1 673 674 675 # B N B
2147 2 674 673 678 # N B N
2148 2 674 675 676 # N B N
2149 1 675 676 679 # B N B
2150 1 675 676 793 # B N B
2151 2 676 679 678 # N B N
2152 2 676 679 680 # N B N
2153 1 679 676 793 # B N B
2154 2 676 793 798 # N B N
2155 2 676 793 794 # N B N
2156 1 677 682 681 # B N B
2157 1 677 682 683 # B N B
2158 1 677 678 679 # B N B
2159 2 678 677 682 # N B N
2160 2 678 679 680 # N B N
2161 1 679 680 683 # B N B
2162 1 679 680 797 # B N B
2163 2 680 683 682 # N B N
2164 2 680 683 684 # N B N
2165 1 683 680 797 # B N B
2166 2 680 797 802 # N B N
2167 2 680 797 798 # N B N
2168 1 681 686 685 # B N B
2169 1 681 686 687 # B N B
2170 1 681 682 683 # B N B
2171 2 682 681 686 # N B N
2172 2 682 683 684 # N B N
2173 1 683 684 687 # B N B
2174 1 683 684 801 # B N B
2175 2 684 687 686 # N B N
2176 2 684 687 688 # N B N
2177 1 687 684 801 # B N B
2178 2 684 801 806 # N B N
2179 2 684 801 802 # N B N
2180 1 685 690 689 # B N B
2181 1 685 690 691 # B N B
2182 1 685 686 687 # B N B
2183 2 686 685 690 # N B N
2184 2 686 687 688 # N B N
2185 1 687 688 691 # B N B
2186 1 687 688 805 # B N B
2187 2 688 691 690 # N B N
2188 2 688 691 692 # N B N
2189 1 691 688 805 # B N B
2190 2 688 805 810 # N B N
2191 2 688 805 806 # N B N
2192 1 689 694 693 # B N B
2193 1 689 694 695 # B N B
2194 1 689 690 691 # B N B
2195 2 690 689 694 # N B N
2196 2 690 691 692 # N B N
2197 1 691 692 695 # B N B
2198 1 691 692 809 # B N B
2199 2 692 695 694 # N B N
2200 2 692 695 696 # N B N
2201 1 695 692 809 # B N B
2202 2 692 809 814 # N B N
2203 2 692 809 810 # N B N
2204 1 693 698 697 # B N B
2205 1 693 698 699 # B N B
2206 1 693 694 695 # B N B
2207 2 694 693 698 # N B N
2208 2 694 695 696 # N B N
2209 1 695 696 699 # B N B
2210 1 695 696 813 # B N B
2211 2 696 699 698 # N B N
2212 2 696 699 700 # N B N
2213 1 699 696 813 # B N B
2214 2 696 813 818 # N B N
2215 2 696 813 814 # N B N
2216 1 697 702 701 # B N B
2217 1 697 702 703 # B N B
2218 1 697 698 699 # B N B
2219 2 698 697 702 # N B N
2220 2 698 699 700 # N B N
2221 1 699 700 703 # B N B
2222 1 699 700 817 # B N B
2223 2 700 703 702 # N B N
2224 2 700 703 704 # N B N
2225 1 703 700 817 # B N B
2226 2 700 817 822 # N B N
2227 2 700 817 818 # N B N
2228 1 701 706 705 # B N B
2229 1 701 706 707 # B N B
2230 1 701 702 703 # B N B
2231 2 702 701 706 # N B N
2232 2 702 703 704 # N B N
2233 1 703 704 707 # B N B
2234 1 703 704 821 # B N B
2235 2 704 707 706 # N B N
2236 2 704 707 708 # N B N
2237 1 707 704 821 # B N B
2238 2 704 821 826 # N B N
2239 2 704 821 822 # N B N
2240 1 705 710 709 # B N B
2241 1 705 710 711 # B N B
2242 1 705 706 707 # B N B
2243 2 706 705 710 # N B N
2244 2 706 707 708 # N B N
2245 1 707 708 711 # B N B
2246 1 707 708 825 # B N B
2247 2 708 711 710 # N B N
2248 2 708 711 712 # N B N
2249 1 711 708 825 # B N B
2250 2 708 825 830 # N B N
2251 2 708 825 826 # N B N
2252 1 709 714 713 # B N B
2253 1 709 714 715 # B N B
2254 1 709 710 711 # B N B
2255 2 710 709 714 # N B N
2256 2 710 711 712 # N B N
2257 1 711 712 715 # B N B
2258 1 711 712 829 # B N B
2259 2 712 715 714 # N B N
2260 2 712 715 716 # N B N
2261 1 715 712 829 # B N B
2262 2 712 829 834 # N B N
2263 2 712 829 830 # N B N
2264 1 713 718 717 # B N B
2265 1 713 718 719 # B N B
2266 1 713 714 715 # B N B
2267 2 714 713 718 # N B N
2268 2 714 715 716 # N B N
2269 1 715 716 719 # B N B
2270 1 715 716 833 # B N B
2271 2 716 719 718 # N B N
2272 2 716 719 720 # N B N
2273 1 719 716 833 # B N B
2274 2 716 833 838 # N B N
2275 2 716 833 834 # N B N
2276 1 717 718 719 # B N B
2277 2 718 719 720 # N B N
2278 1 719 720 837 # B N B
2279 2 720 837 722 # N B N
2280 2 720 837 838 # N B N
2281 1 721 726 725 # B N B
2282 1 721 726 727 # B N B
2283 1 721 722 837 # B N B
2284 1 721 722 723 # B N B
2285 2 722 721 726 # N B N
2286 2 722 837 838 # N B N
2287 2 722 723 724 # N B N
2288 2 722 723 840 # N B N
2289 1 723 722 837 # B N B
2290 1 723 724 727 # B N B
2291 1 723 724 841 # B N B
2292 2 724 723 840 # N B N
2293 1 723 840 839 # B N B
2294 1 723 840 957 # B N B
2295 2 724 727 726 # N B N
2296 2 724 727 728 # N B N
2297 1 727 724 841 # B N B
2298 2 724 841 846 # N B N
2299 2 724 841 842 # N B N
2300 1 725 730 729 # B N B
2301 1 725 730 731 # B N B
2302 1 725 726 727 # B N B
2303 2 726 725 730 # N B N
2304 2 726 727 728 # N B N
2305 1 727 728 731 # B N B
2306 1 727 728 845 # B N B
2307 2 728 731 730 # N B N
2308 2 728 731 732 # N B N
2309 1 731 728 845 # B N B
2310 2 728 845 850 # N B N
2311 2 728 845 846 # N B N
2312 1 729 734 733 # B N B
2313 1 729 734 735 # B N B
2314 1 729 730 731 # B N B
2315 2 730 729 734 # N B N
2316 2 730 731 732 # N B N
2317 1 731 732 735 # B N B
2318 1 731 732 849 # B N B
2319 2 732 735 734 # N B N
2320 2 732 735 736 # N B N
2321 1 735 732 849 # B N B
2322 2 732 849 854 # N B N
2323 2 732 849 850 # N B N
2324 1 733 738 737 # B N B
2325 1 733 738 739 # B N B
2326 1 733 734 735 # B N B
2327 2 734 733 738 # N B N
2328 2 734 735 736 # N B N
2329 1 735 736 739 # B N B
2330 1 735 736 853 # B N B
2331 2 736 739 738 # N B N
2332 2 736 739 740 # N B N
2333 1 739 736 853 # B N B
2334 2 736 853 858 # N B N
2335 2 736 853 854 # N B N
2336 1 737 742 741 # B N B
2337 1 737 742 743 # B N B
2338 1 737 738 739 # B N B
2339 2 738 737 742 # N B N
2340 2 738 739 740 # N B N
2341 1 739 740 743 # B N B
2342 1 739 740 857 # B N B
2343 2 740 743 742 # N B N
2344 2 740 743 744 # N B N
2345 1 743 740 857 # B N B
2346 2 740 857 862 # N B N
2347 2 740 857 858 # N B N
2348 1 741 746 745 # B N B
2349 1 741 746 747 # B N B
2350 1 741 742 743 # B N B
2351 2 742 741 746 # N B N
2352 2 742 743 744 # N B N
2353 1 743 744 747 # B N B
2354 1 743 744 861 # B N B
2355 2 744 747 746 # N B N
2356 2 744 747 748 # N B N
2357 1 747 744 861 # B N B
2358 2 744 861 866 # N B N
2359 2 744 861 862 # N B N
2360 1 745 750 749 # B N B
2361 1 745 750 751 # B N B
2362 1 745 746 747 # B N B
2363 2 746 745 750 # N B N
2364 2 746 747 748 # N B N
2365 1 747 748 751 # B N B
2366 1 747 748 865 # B N B
2367 2 748 751 750 # N B N
2368 2 748 751 752 # N B N
2369 1 751 748 865 # B N B
2370 2 748 865 870 # N B N
2371 2 748 865 866 # N B N
2372 1 749 754 753 # B N B
2373 1 749 754 755 # B N B
2374 1 749 750 751 # B N B
2375 2 750 749 754 # N B N
2376 2 750 751 752 # N B N
2377 1 751 752 755 # B N B
2378 1 751 752 869 # B N B
2379 2 752 755 754 # N B N
2380 2 752 755 756 # N B N
2381 1 755 752 869 # B N B
2382 2 752 869 874 # N B N
2383 2 752 869 870 # N B N
2384 1 753 758 757 # B N B
2385 1 753 758 759 # B N B
2386 1 753 754 755 # B N B
2387 2 754 753 758 # N B N
2388 2 754 755 756 # N B N
2389 1 755 756 759 # B N B
2390 1 755 756 873 # B N B
2391 2 756 759 758 # N B N
2392 2 756 759 760 # N B N
2393 1 759 756 873 # B N B
2394 2 756 873 878 # N B N
2395 2 756 873 874 # N B N
2396 1 757 762 761 # B N B
2397 1 757 762 763 # B N B
2398 1 757 758 759 # B N B
2399 2 758 757 762 # N B N
2400 2 758 759 760 # N B N
2401 1 759 760 763 # B N B
2402 1 759 760 877 # B N B
2403 2 760 763 762 # N B N
2404 2 760 763 764 # N B N
2405 1 763 760 877 # B N B
2406 2 760 877 882 # N B N
2407 2 760 877 878 # N B N
2408 1 761 766 765 # B N B
2409 1 761 766 767 # B N B
2410 1 761 762 763 # B N B
2411 2 762 761 766 # N B N
2412 2 762 763 764 # N B N
2413 1 763 764 767 # B N B
2414 1 763 764 881 # B N B
2415 2 764 767 766 # N B N
2416 2 764 767 768 # N B N
2417 1 767 764 881 # B N B
2418 2 764 881 886 # N B N
2419 2 764 881 882 # N B N
2420 1 765 770 769 # B N B
2421 1 765 770 771 # B N B
2422 1 765 766 767 # B N B
2423 2 766 765 770 # N B N
2424 2 766 767 768 # N B N
2425 1 767 768 771 # B N B
2426 1 767 768 885 # B N B
2427 2 768 771 770 # N B N
2428 2 768 771 772 # N B N
2429 1 771 768 885 # B N B
2430 2 768 885 890 # N B N
2431 2 768 885 886 # N B N
2432 1 769 774 773 # B N B
2433 1 769 774 775 # B N B
2434 1 769 770 771 # B N B
2435 2 770 769 774 # N B N
2436 2 770 771 772 # N B N
2437 1 771 772 775 # B N B
2438 1 771 772 889 # B N B
2439 2 772 775 774 # N B N
2440 2 772 775 776 # N B N
2441 1 775 772 889 # B N B
2442 2 772 889 894 # N B N
2443 2 772 889 890 # N B N
2444 1 773 778 777 # B N B
2445 1 773 778 779 # B N B
2446 1 773 774 775 # B N B
2447 2 774 773 778 # N B N
2448 2 774 775 776 # N B N
2449 1 775 776 779 # B N B
2450 1 775 776 893 # B N B
2451 2 776 779 778 # N B N
2452 2 776 779 780 # N B N
2453 1 779 776 893 # B N B
2454 2 776 893 898 # N B N
2455 2 776 893 894 # N B N
2456 1 777 782 781 # B N B
2457 1 777 782 783 # B N B
2458 1 777 778 779 # B N B
2459 2 778 777 782 # N B N
2460 2 778 779 780 # N B N
2461 1 779 780 783 # B N B
2462 1 779 780 897 # B N B
2463 2 780 783 782 # N B N
2464 2 780 783 784 # N B N
2465 1 783 780 897 # B N B
2466 2 780 897 902 # N B N
2467 2 780 897 898 # N B N
2468 1 781 786 785 # B N B
2469 1 781 786 787 # B N B
2470 1 781 782 783 # B N B
2471 2 782 781 786 # N B N
2472 2 782 783 784 # N B N
2473 1 783 784 787 # B N B
2474 1 783 784 901 # B N B
2475 2 784 787 786 # N B N
2476 2 784 787 788 # N B N
2477 1 787 784 901 # B N B
2478 2 784 901 906 # N B N
2479 2 784 901 902 # N B N
2480 1 785 790 789 # B N B
2481 1 785 790 791 # B N B
2482 1 785 786 787 # B N B
2483 2 786 785 790 # N B N
2484 2 786 787 788 # N B N
2485 1 787 788 791 # B N B
2486 1 787 788 905 # B N B
2487 2 788 791 790 # N B N
2488 2 788 791 792 # N B N
2489 1 791 788 905 # B N B
2490 2 788 905 910 # N B N
2491 2 788 905 906 # N B N
2492 1 789 794 793 # B N B
2493 1 789 794 795 # B N B
2494 1 789 790 791 # B N B
2495 2 790 789 794 # N B N
2496 2 790 791 792 # N B N
2497 1 791 792 795 # B N B
2498 1 791 792 909 # B N B
2499 2 792 795 794 # N B N
2500 2 792 795 796 # N B N
2501 1 795 792 909 # B N B
2502 2 792 909 914 # N B N
2503 2 792 909 910 # N B N
2504 1 793 798 797 # B N B
2505 1 793 798 799 # B N B
2506 1 793 794 795 # B N B
2507 2 794 793 798 # N B N
2508 2 794 795 796 # N B N
2509 1 795 796 799 # B N B
2510 1 795 796 913 # B N B
2511 2 796 799 798 # N B N
2512 2 796 799 800 # N B N
2513 1 799 796 913 # B N B
2514 2 796 913 918 # N B N
2515 2 796 913 914 # N B N
2516 1 797 802 801 # B N B
2517 1 797 802 803 # B N B
2518 1 797 798 799 # B N B
2519 2 798 797 802 # N B N
2520 2 798 799 800 # N B N
2521 1 799 800 803 # B N B
2522 1 799 800 917 # B N B
2523 2 800 803 802 # N B N
2524 2 800 803 804 # N B N
2525 1 803 800 917 # B N B
2526 2 800 917 922 # N B N
2527 2 800 917 918 # N B N
2528 1 801 806 805 # B N B
2529 1 801 806 807 # B N B
2530 1 801 802 803 # B N B
2531 2 802 801 806 # N B N
2532 2 802 803 804 # N B N
2533 1 803 804 807 # B N B
2534 1 803 804 921 # B N B
2535 2 804 807 806 # N B N
2536 2 804 807 808 # N B N
2537 1 807 804 921 # B N B
2538 2 804 921 926 # N B N
2539 2 804 921 922 # N B N
2540 1 805 810 809 # B N B
2541 1 805 810 811 # B N B
2542 1 805 806 807 # B N B
2543 2 806 805 810 # N B N
2544 2 806 807 808 # N B N
2545 1 807 808 811 # B N B
2546 1 807 808 925 # B N B
2547 2 808 811 810 # N B N
2548 2 808 811 812 # N B N
2549 1 811 808 925 # B N B
2550 2 808 925 930 # N B N
2551 2 808 925 926 # N B N
2552 1 809 814 813 # B N B
2553 1 809 814 815 # B N B
2554 1 809 810 811 # B N B
2555 2 810 809 814 # N B N
2556 2 810 811 812 # N B N
2557 1 811 812 815 # B N B
2558 1 811 812 929 # B N B
2559 2 812 815 814 # N B N
2560 2 812 815 816 # N B N
2561 1 815 812 929 # B N B
2562 2 812 929 934 # N B N
2563 2 812 929 930 # N B N
2564 1 813 818 817 # B N B
2565 1 813 818 819 # B N B
2566 1 813 814 815 # B N B
2567 2 814 813 818 # N B N
2568 2 814 815 816 # N B N
2569 1 815 816 819 # B N B
2570 1 815 816 933 # B N B
2571 2 816 819 818 # N B N
2572 2 816 819 820 # N B N
2573 1 819 816 933 # B N B
2574 2 816 933 938 # N B N
2575 2 816 933 934 # N B N
2576 1 817 822 821 # B N B
2577 1 817 822 823 # B N B
2578 1 817 818 819 # B N B
2579 2 818 817 822 # N B N
2580 2 818 819 820 # N B N
2581 1 819 820 823 # B N B
2582 1 819 820 937 # B N B
2583 2 820 823 822 # N B N
2584 2 820 823 824 # N B N
2585 1 823 820 937 # B N B
2586 2 820 937 942 # N B N
2587 2 820 937 938 # N B N
2588 1 821 826 825 # B N B
2589 1 821 826 827 # B N B
2590 1 821 822 823 # B N B
2591 2 822 821 826 # N B N
2592 2 822 823 824 # N B N
2593 1 823 824 827 # B N B
2594 1 823 824 941 # B N B
2595 2 824 827 826 # N B N
2596 2 824 827 828 # N B N
2597 1 827 824 941 # B N B
2598 2 824 941 946 # N B N
2599 2 824 941 942 # N B N
2600 1 825 830 829 # B N B
2601 1 825 830 831 # B N B
2602 1 825 826 827 # B N B
2603 2 826 825 830 # N B N
2604 2 826 827 828 # N B N
2605 1 827 828 831 # B N B
2606 1 827 828 945 # B N B
2607 2 828 831 830 # N B N
2608 2 828 831 832 # N B N
2609 1 831 828 945 # B N B
2610 2 828 945 950 # N B N
2611 2 828 945 946 # N B N
2612 1 829 834 833 # B N B
2613 1 829 834 835 # B N B
2614 1 829 830 831 # B N B
2615 2 830 829 834 # N B N
2616 2 830 831 832 # N B N
2617 1 831 832 835 # B N B
2618 1 831 832 949 # B N B
2619 2 832 835 834 # N B N
2620 2 832 835 836 # N B N
2621 1 835 832 949 # B N B
2622 2 832 949 954 # N B N
2623 2 832 949 950 # N B N
2624 1 833 838 837 # B N B
2625 1 833 838 839 # B N B
2626 1 833 834 835 # B N B
2627 2 834 833 838 # N B N
2628 2 834 835 836 # N B N
2629 1 835 836 839 # B N B
2630 1 835 836 953 # B N B
2631 2 836 839 838 # N B N
2632 2 836 839 840 # N B N
2633 1 839 836 953 # B N B
2634 2 836 953 958 # N B N
2635 2 836 953 954 # N B N
2636 1 837 838 839 # B N B
2637 2 838 839 840 # N B N
2638 1 839 840 957 # B N B
2639 2 840 957 842 # N B N
2640 2 840 957 958 # N B N
2641 1 841 846 845 # B N B
2642 1 841 846 847 # B N B
2643 1 841 842 957 # B N B
2644 1 841 842 843 # B N B
2645 2 842 841 846 # N B N
2646 2 842 957 958 # N B N
2647 2 842 843 844 # N B N
2648 2 842 843 960 # N B N
2649 1 843 842 957 # B N B
2650 1 843 844 847 # B N B
2651 1 843 844 961 # B N B
2652 2 844 843 960 # N B N
2653 1 843 960 959 # B N B
2654 1 843 960 1077 # B N B
2655 2 844 847 846 # N B N
2656 2 844 847 848 # N B N
2657 1 847 844 961 # B N B
2658 2 844 961 962 # N B N
2659 2 844 961 966 # N B N
2660 1 845 850 849 # B N B
2661 1 845 850 851 # B N B
2662 1 845 846 847 # B N B
2663 2 846 845 850 # N B N
2664 2 846 847 848 # N B N
2665 1 847 848 851 # B N B
2666 1 847 848 965 # B N B
2667 2 848 851 850 # N B N
2668 2 848 851 852 # N B N
2669 1 851 848 965 # B N B
2670 2 848 965 966 # N B N
2671 2 848 965 970 # N B N
2672 1 849 854 853 # B N B
2673 1 849 854 855 # B N B
2674 1 849 850 851 # B N B
2675 2 850 849 854 # N B N
2676 2 850 851 852 # N B N
2677 1 851 852 855 # B N B
2678 1 851 852 969 # B N B
2679 2 852 855 854 # N B N
2680 2 852 855 856 # N B N
2681 1 855 852 969 # B N B
2682 2 852 969 970 # N B N
2683 2 852 969 974 # N B N
2684 1 853 858 857 # B N B
2685 1 853 858 859 # B N B
2686 1 853 854 855 # B N B
2687 2 854 853 858 # N B N
2688 2 854 855 856 # N B N
2689 1 855 856 859 # B N B
2690 1 855 856 973 # B N B
2691 2 856 859 858 # N B N
2692 2 856 859 860 # N B N
2693 1 859 856 973 # B N B
2694 2 856 973 974 # N B N
2695 2 856 973 978 # N B N
2696 1 857 862 861 # B N B
2697 1 857 862 863 # B N B
2698 1 857 858 859 # B N B
2699 2 858 857 862 # N B N
2700 2 858 859 860 # N B N
2701 1 859 860 863 # B N B
2702 1 859 860 977 # B N B
2703 2 860 863 862 # N B N
2704 2 860 863 864 # N B N
2705 1 863 860 977 # B N B
2706 2 860 977 978 # N B N
2707 2 860 977 982 # N B N
2708 1 861 866 865 # B N B
2709 1 861 866 867 # B N B
2710 1 861 862 863 # B N B
2711 2 862 861 866 # N B N
2712 2 862 863 864 # N B N
2713 1 863 864 867 # B N B
2714 1 863 864 981 # B N B
2715 2 864 867 866 # N B N
2716 2 864 867 868 # N B N
2717 1 867 864 981 # B N B
2718 2 864 981 982 # N B N
2719 2 864 981 986 # N B N
2720 1 865 870 869 # B N B
2721 1 865 870 871 # B N B
2722 1 865 866 867 # B N B
2723 2 866 865 870 # N B N
2724 2 866 867 868 # N B N
2725 1 867 868 871 # B N B
2726 1 867 868 985 # B N B
2727 2 868 871 870 # N B N
2728 2 868 871 872 # N B N
2729 1 871 868 985 # B N B
2730 2 868 985 986 # N B N
2731 2 868 985 990 # N B N
2732 1 869 874 873 # B N B
2733 1 869 874 875 # B N B
2734 1 869 870 871 # B N B
2735 2 870 869 874 # N B N
2736 2 870 871 872 # N B N
2737 1 871 872 875 # B N B
2738 1 871 872 989 # B N B
2739 2 872 875 874 # N B N
2740 2 872 875 876 # N B N
2741 1 875 872 989 # B N B
2742 2 872 989 990 # N B N
2743 2 872 989 994 # N B N
2744 1 873 878 877 # B N B
2745 1 873 878 879 # B N B
2746 1 873 874 875 # B N B
2747 2 874 873 878 # N B N
2748 2 874 875 876 # N B N
2749 1 875 876 879 # B N B
2750 1 875 876 993 # B N B
2751 2 876 879 878 # N B N
2752 2 876 879 880 # N B N
2753 1 879 876 993 # B N B
2754 2 876 993 994 # N B N
2755 2 876 993 998 # N B N
2756 1 877 882 881 # B N B
2757 1 877 882 883 # B N B
2758 1 877 878 879 # B N B
2759 2 878 877 882 # N B N
2760 2 878 879 880 # N B N
2761 1 879 880 883 # B N B
2762 1 879 880 997 # B N B
2763 2 880 883 882 # N B N
2764 2 880 883 884 # N B N
2765 1 883 880 997 # B N B
2766 2 880 997 998 # N B N
2767 2 880 997 1002 # N B N
2768 1 881 886 885 # B N B
2769 1 881 886 887 # B N B
2770 1 881 882 883 # B N B
2771 2 882 881 886 # N B N
2772 2 882 883 884 # N B N
2773 1 883 884 887 # B N B
2774 1 883 884 1001 # B N B
2775 2 884 887 886 # N B N
2776 2 884 887 888 # N B N
2777 1 887 884 1001 # B N B
2778 2 884 1001 1002 # N B N
2779 2 884 1001 1006 # N B N
2780 1 885 890 889 # B N B
2781 1 885 890 891 # B N B
2782 1 885 886 887 # B N B
2783 2 886 885 890 # N B N
2784 2 886 887 888 # N B N
2785 1 887 888 891 # B N B
2786 1 887 888 1005 # B N B
2787 2 888 891 890 # N B N
2788 2 888 891 892 # N B N
2789 1 891 888 1005 # B N B
2790 2 888 1005 1006 # N B N
2791 2 888 1005 1010 # N B N
2792 1 889 894 893 # B N B
2793 1 889 894 895 # B N B
2794 1 889 890 891 # B N B
2795 2 890 889 894 # N B N
2796 2 890 891 892 # N B N
2797 1 891 892 895 # B N B
2798 1 891 892 1009 # B N B
2799 2 892 895 894 # N B N
2800 2 892 895 896 # N B N
2801 1 895 892 1009 # B N B
2802 2 892 1009 1010 # N B N
2803 2 892 1009 1014 # N B N
2804 1 893 898 897 # B N B
2805 1 893 898 899 # B N B
2806 1 893 894 895 # B N B
2807 2 894 893 898 # N B N
2808 2 894 895 896 # N B N
2809 1 895 896 899 # B N B
2810 1 895 896 1013 # B N B
2811 2 896 899 898 # N B N
2812 2 896 899 900 # N B N
2813 1 899 896 1013 # B N B
2814 2 896 1013 1014 # N B N
2815 2 896 1013 1018 # N B N
2816 1 897 902 901 # B N B
2817 1 897 902 903 # B N B
2818 1 897 898 899 # B N B
2819 2 898 897 902 # N B N
2820 2 898 899 900 # N B N
2821 1 899 900 903 # B N B
2822 1 899 900 1017 # B N B
2823 2 900 903 902 # N B N
2824 2 900 903 904 # N B N
2825 1 903 900 1017 # B N B
2826 2 900 1017 1018 # N B N
2827 2 900 1017 1022 # N B N
2828 1 901 906 905 # B N B
2829 1 901 906 907 # B N B
2830 1 901 902 903 # B N B
2831 2 902 901 906 # N B N
2832 2 902 903 904 # N B N
2833 1 903 904 907 # B N B
2834 1 903 904 1021 # B N B
2835 2 904 907 906 # N B N
2836 2 904 907 908 # N B N
2837 1 907 904 1021 # B N B
2838 2 904 1021 1022 # N B N
2839 2 904 1021 1026 # N B N
2840 1 905 910 909 # B N B
2841 1 905 910 911 # B N B
2842 1 905 906 907 # B N B
2843 2 906 905 910 # N B N
2844 2 906 907 908 # N B N
2845 1 907 908 911 # B N B
2846 1 907 908 1025 # B N B
2847 2 908 911 910 # N B N
2848 2 908 911 912 # N B N
2849 1 911 908 1025 # B N B
2850 2 908 1025 1026 # N B N
2851 2 908 1025 1030 # N B N
2852 1 909 914 913 # B N B
2853 1 909 914 915 # B N B
2854 1 909 910 911 # B N B
2855 2 910 909 914 # N B N
2856 2 910 911 912 # N B N
2857 1 911 912 915 # B N B
2858 1 911 912 1029 # B N B
2859 2 912 915 914 # N B N
2860 2 912 915 916 # N B N
2861 1 915 912 1029 # B N B
2862 2 912 1029 1030 # N B N
2863 2 912 1029 1034 # N B N
2864 1 913 918 917 # B N B
2865 1 913 918 919 # B N B
2866 1 913 914 915 # B N B
2867 2 914 913 918 # N B N
2868 2 914 915 916 # N B N
2869 1 915 916 919 # B N B
2870 1 915 916 1033 # B N B
2871 2 916 919 918 # N B N
2872 2 916 919 920 # N B N
2873 1 919 916 1033 # B N B
2874 2 916 1033 1034 # N B N
2875 2 916 1033 1038 # N B N
2876 1 917 922 921 # B N B
2877 1 917 922 923 # B N B
2878 1 917 918 919 # B N B
2879 2 918 917 922 # N B N
2880 2 918 919 920 # N B N
2881 1 919 920 923 # B N B
2882 1 919 920 1037 # B N B
2883 2 920 923 922 # N B N
2884 2 920 923 924 # N B N
2885 1 923 920 1037 # B N B
2886 2 920 1037 1038 # N B N
2887 2 920 1037 1042 # N B N
2888 1 921 926 925 # B N B
2889 1 921 926 927 # B N B
2890 1 921 922 923 # B N B
2891 2 922 921 926 # N B N
2892 2 922 923 924 # N B N
2893 1 923 924 927 # B N B
2894 1 923 924 1041 # B N B
2895 2 924 927 926 # N B N
2896 2 924 927 928 # N B N
2897 1 927 924 1041 # B N B
2898 2 924 1041 1042 # N B N
2899 2 924 1041 1046 # N B N
2900 1 925 930 929 # B N B
2901 1 925 930 931 # B N B
2902 1 925 926 927 # B N B
2903 2 926 925 930 # N B N
2904 2 926 927 928 # N B N
2905 1 927 928 931 # B N B
2906 1 927 928 1045 # B N B
2907 2 928 931 930 # N B N
2908 2 928 931 932 # N B N
2909 1 931 928 1045 # B N B
2910 2 928 1045 1046 # N B N
2911 2 928 1045 1050 # N B N
2912 1 929 934 933 # B N B
2913 1 929 934 935 # B N B
2914 1 929 930 931 # B N B
2915 2 930 929 934 # N B N
2916 2 930 931 932 # N B N
2917 1 931 932 935 # B N B
2918 1 931 932 1049 # B N B
2919 2 932 935 934 # N B N
2920 2 932 935 936 # N B N
2921 1 935 932 1049 # B N B
2922 2 932 1049 1050 # N B N
2923 2 932 1049 1054 # N B N
2924 1 933 938 937 # B N B
2925 1 933 938 939 # B N B
2926 1 933 934 935 # B N B
2927 2 934 933 938 # N B N
2928 2 934 935 936 # N B N
2929 1 935 936 939 # B N B
2930 1 935 936 1053 # B N B
2931 2 936 939 938 # N B N
2932 2 936 939 940 # N B N
2933 1 939 936 1053 # B N B
2934 2 936 1053 1054 # N B N
2935 2 936 1053 1058 # N B N
2936 1 937 942 941 # B N B
2937 1 937 942 943 # B N B
2938 1 937 938 939 # B N B
2939 2 938 937 942 # N B N
2940 2 938 939 940 # N B N
2941 1 939 940 943 # B N B
2942 1 939 940 1057 # B N B
2943 2 940 943 942 # N B N
2944 2 940 943 944 # N B N
2945 1 943 940 1057 # B N B
2946 2 940 1057 1058 # N B N
2947 2 940 1057 1062 # N B N
2948 1 941 946 945 # B N B
2949 1 941 946 947 # B N B
2950 1 941 942 943 # B N B
2951 2 942 941 946 # N B N
2952 2 942 943 944 # N B N
2953 1 943 944 947 # B N B
2954 1 943 944 1061 # B N B
2955 2 944 947 946 # N B N
2956 2 944 947 948 # N B N
2957 1 947 944 1061 # B N B
2958 2 944 1061 1062 # N B N
2959 2 944 1061 1066 # N B N
2960 1 945 950 949 # B N B
2961 1 945 950 951 # B N B
2962 1 945 946 947 # B N B
2963 2 946 945 950 # N B N
2964 2 946 947 948 # N B N
2965 1 947 948 951 # B N B
2966 1 947 948 1065 # B N B
2967 2 948 951 950 # N B N
2968 2 948 951 952 # N B N
2969 1 951 948 1065 # B N B
2970 2 948 1065 1066 # N B N
2971 2 948 1065 1070 # N B N
2972 1 949 954 953 # B N B
2973 1 949 954 955 # B N B
2974 1 949 950 951 # B N B
2975 2 950 949 954 # N B N
2976 2 950 951 952 # N B N
2977 1 951 952 955 # B N B
2978 1 951 952 1069 # B N B
2979 2 952 955 954 # N B N
2980 2 952 955 956 # N B N
2981 1 955 952 1069 # B N B
2982 2 952 1069 1070 # N B N
2983 2 952 1069 1074 # N B N
2984 1 953 958 957 # B N B
2985 1 953 958 959 # B N B
2986 1 953 954 955 # B N B
2987 2 954 953 958 # N B N
2988 2 954 955 956 # N B N
2989 1 955 956 959 # B N B
2990 1 955 956 1073 # B N B
2991 2 956 959 958 # N B N
2992 2 956 959 960 # N B N
2993 1 959 956 1073 # B N B
2994 2 956 1073 1074 # N B N
2995 2 956 1073 1078 # N B N
2996 1 957 958 959 # B N B
2997 2 958 959 960 # N B N
2998 1 959 960 1077 # B N B
2999 2 960 1077 1078 # N B N
3000 2 960 1077 962 # N B N
3001 1 961 962 963 # B N B
3002 1 961 962 1077 # B N B
3003 2 962 961 966 # N B N
3004 1 961 966 965 # B N B
3005 1 961 966 967 # B N B
3006 2 962 963 964 # N B N
3007 2 962 963 1080 # N B N
3008 1 963 962 1077 # B N B
3009 2 962 1077 1078 # N B N
3010 1 963 964 967 # B N B
3011 1 963 964 1081 # B N B
3012 2 964 963 1080 # N B N
3013 1 963 1080 1079 # B N B
3014 1 963 1080 1197 # B N B
3015 2 964 967 966 # N B N
3016 2 964 967 968 # N B N
3017 1 967 964 1081 # B N B
3018 2 964 1081 1082 # N B N
3019 2 964 1081 1086 # N B N
3020 1 965 966 967 # B N B
3021 2 966 965 970 # N B N
3022 1 965 970 969 # B N B
3023 1 965 970 971 # B N B
3024 2 966 967 968 # N B N
3025 1 967 968 971 # B N B
3026 1 967 968 1085 # B N B
3027 2 968 971 970 # N B N
3028 2 968 971 972 # N B N
3029 1 971 968 1085 # B N B
3030 2 968 1085 1086 # N B N
3031 2 968 1085 1090 # N B N
3032 1 969 970 971 # B N B
3033 2 970 969 974 # N B N
3034 1 969 974 973 # B N B
3035 1 969 974 975 # B N B
3036 2 970 971 972 # N B N
3037 1 971 972 975 # B N B
3038 1 971 972 1089 # B N B
3039 2 972 975 974 # N B N
3040 2 972 975 976 # N B N
3041 1 975 972 1089 # B N B
3042 2 972 1089 1090 # N B N
3043 2 972 1089 1094 # N B N
3044 1 973 974 975 # B N B
3045 2 974 973 978 # N B N
3046 1 973 978 977 # B N B
3047 1 973 978 979 # B N B
3048 2 974 975 976 # N B N
3049 1 975 976 979 # B N B
3050 1 975 976 1093 # B N B
3051 2 976 979 978 # N B N
3052 2 976 979 980 # N B N
3053 1 979 976 1093 # B N B
3054 2 976 1093 1094 # N B N
3055 2 976 1093 1098 # N B N
3056 1 977 978 979 # B N B
3057 2 978 977 982 # N B N
3058 1 977 982 981 # B N B
3059 1 977 982 983 # B N B
3060 2 978 979 980 # N B N
3061 1 979 980 983 # B N B
3062 1 979 980 1097 # B N B
3063 2 980 983 982 # N B N
3064 2 980 983 984 # N B N
3065 1 983 980 1097 # B N B
3066 2 980 1097 1098 # N B N
3067 2 980 1097 1102 # N B N
3068 1 981 982 983 # B N B
3069 2 982 981 986 # N B N
3070 1 981 986 985 # B N B
3071 1 981 986 987 # B N B
3072 2 982 983 984 # N B N
3073 1 983 984 987 # B N B
3074 1 983 984 1101 # B N B
3075 2 984 987 986 # N B N
3076 2 984 987 988 # N B N
3077 1 987 984 1101 # B N B
3078 2 984 1101 1102 # N B N
3079 2 984 1101 1106 # N B N
3080 1 985 986 987 # B N B
3081 2 986 985 990 # N B N
3082 1 985 990 989 # B N B
3083 1 985 990 991 # B N B
3084 2 986 987 988 # N B N
3085 1 987 988 991 # B N B
3086 1 987 988 1105 # B N B
3087 2 988 991 990 # N B N
3088 2 988 991 992 # N B N
3089 1 991 988 1105 # B N B
3090 2 988 1105 1106 # N B N
3091 2 988 1105 1110 # N B N
3092 1 989 990 991 # B N B
3093 2 990 989 994 # N B N
3094 1 989 994 993 # B N B
3095 1 989 994 995 # B N B
3096 2 990 991 992 # N B N
3097 1 991 992 995 # B N B
3098 1 991 992 1109 # B N B
3099 2 992 995 994 # N B N
3100 2 992 995 996 # N B N
3101 1 995 992 1109 # B N B
3102 2 992 1109 1110 # N B N
3103 2 992 1109 1114 # N B N
3104 1 993 994 995 # B N B
3105 2 994 993 998 # N B N
3106 1 993 998 997 # B N B
3107 1 993 998 999 # B N B
3108 2 994 995 996 # N B N
3109 1 995 996 999 # B N B
3110 1 995 996 1113 # B N B
3111 2 996 999 998 # N B N
3112 2 996 999 1000 # N B N
3113 1 999 996 1113 # B N B
3114 2 996 1113 1114 # N B N
3115 2 996 1113 1118 # N B N
3116 1 997 998 999 # B N B
3117 2 998 997 1002 # N B N
3118 1 997 1002 1001 # B N B
3119 1 997 1002 1003 # B N B
3120 2 998 999 1000 # N B N
3121 1 999 1000 1003 # B N B
3122 1 999 1000 1117 # B N B
3123 2 1000 1003 1002 # N B N
3124 2 1000 1003 1004 # N B N
3125 1 1003 1000 1117 # B N B
3126 2 1000 1117 1118 # N B N
3127 2 1000 1117 1122 # N B N
3128 1 1001 1002 1003 # B N B
3129 2 1002 1001 1006 # N B N
3130 1 1001 1006 1005 # B N B
3131 1 1001 1006 1007 # B N B
3132 2 1002 1003 1004 # N B N
3133 1 1003 1004 1007 # B N B
3134 1 1003 1004 1121 # B N B
3135 2 1004 1007 1006 # N B N
3136 2 1004 1007 1008 # N B N
3137 1 1007 1004 1121 # B N B
3138 2 1004 1121 1122 # N B N
3139 2 1004 1121 1126 # N B N
3140 1 1005 1006 1007 # B N B
3141 2 1006 1005 1010 # N B N
3142 1 1005 1010 1009 # B N B
3143 1 1005 1010 1011 # B N B
3144 2 1006 1007 1008 # N B N
3145 1 1007 1008 1011 # B N B
3146 1 1007 1008 1125 # B N B
3147 2 1008 1011 1010 # N B N
3148 2 1008 1011 1012 # N B N
3149 1 1011 1008 1125 # B N B
3150 2 1008 1125 1126 # N B N
3151 2 1008 1125 1130 # N B N
3152 1 1009 1010 1011 # B N B
3153 2 1010 1009 1014 # N B N
3154 1 1009 1014 1013 # B N B
3155 1 1009 1014 1015 # B N B
3156 2 1010 1011 1012 # N B N
3157 1 1011 1012 1015 # B N B
3158 1 1011 1012 1129 # B N B
3159 2 1012 1015 1014 # N B N
3160 2 1012 1015 1016 # N B N
3161 1 1015 1012 1129 # B N B
3162 2 1012 1129 1130 # N B N
3163 2 1012 1129 1134 # N B N
3164 1 1013 1014 1015 # B N B
3165 2 1014 1013 1018 # N B N
3166 1 1013 1018 1017 # B N B
3167 1 1013 1018 1019 # B N B
3168 2 1014 1015 1016 # N B N
3169 1 1015 1016 1019 # B N B
3170 1 1015 1016 1133 # B N B
3171 2 1016 1019 1018 # N B N
3172 2 1016 1019 1020 # N B N
3173 1 1019 1016 1133 # B N B
3174 2 1016 1133 1134 # N B N
3175 2 1016 1133 1138 # N B N
3176 1 1017 1018 1019 # B N B
3177 2 1018 1017 1022 # N B N
3178 1 1017 1022 1021 # B N B
3179 1 1017 1022 1023 # B N B
3180 2 1018 1019 1020 # N B N
3181 1 1019 1020 1023 # B N B
3182 1 1019 1020 1137 # B N B
3183 2 1020 1023 1022 # N B N
3184 2 1020 1023 1024 # N B N
3185 1 1023 1020 1137 # B N B
3186 2 1020 1137 1138 # N B N
3187 2 1020 1137 1142 # N B N
3188 1 1021 1022 1023 # B N B
3189 2 1022 1021 1026 # N B N
3190 1 1021 1026 1025 # B N B
3191 1 1021 1026 1027 # B N B
3192 2 1022 1023 1024 # N B N
3193 1 1023 1024 1027 # B N B
3194 1 1023 1024 1141 # B N B
3195 2 1024 1027 1026 # N B N
3196 2 1024 1027 1028 # N B N
3197 1 1027 1024 1141 # B N B
3198 2 1024 1141 1142 # N B N
3199 2 1024 1141 1146 # N B N
3200 1 1025 1026 1027 # B N B
3201 2 1026 1025 1030 # N B N
3202 1 1025 1030 1029 # B N B
3203 1 1025 1030 1031 # B N B
3204 2 1026 1027 1028 # N B N
3205 1 1027 1028 1031 # B N B
3206 1 1027 1028 1145 # B N B
3207 2 1028 1031 1030 # N B N
3208 2 1028 1031 1032 # N B N
3209 1 1031 1028 1145 # B N B
3210 2 1028 1145 1146 # N B N
3211 2 1028 1145 1150 # N B N
3212 1 1029 1030 1031 # B N B
3213 2 1030 1029 1034 # N B N
3214 1 1029 1034 1033 # B N B
3215 1 1029 1034 1035 # B N B
3216 2 1030 1031 1032 # N B N
3217 1 1031 1032 1035 # B N B
3218 1 1031 1032 1149 # B N B
3219 2 1032 1035 1034 # N B N
3220 2 1032 1035 1036 # N B N
3221 1 1035 1032 1149 # B N B
3222 2 1032 1149 1150 # N B N
3223 2 1032 1149 1154 # N B N
3224 1 1033 1034 1035 # B N B
3225 2 1034 1033 1038 # N B N
3226 1 1033 1038 1037 # B N B
3227 1 1033 1038 1039 # B N B
3228 2 1034 1035 1036 # N B N
3229 1 1035 1036 1039 # B N B
3230 1 1035 1036 1153 # B N B
3231 2 1036 1039 1038 # N B N
3232 2 1036 1039 1040 # N B N
3233 1 1039 1036 1153 # B N B
3234 2 1036 1153 1154 # N B N
3235 2 1036 1153 1158 # N B N
3236 1 1037 1038 1039 # B N B
3237 2 1038 1037 1042 # N B N
3238 1 1037 1042 1041 # B N B
3239 1 1037 1042 1043 # B N B
3240 2 1038 1039 1040 # N B N
3241 1 1039 1040 1043 # B N B
3242 1 1039 1040 1157 # B N B
3243 2 1040 1043 1042 # N B N
3244 2 1040 1043 1044 # N B N
3245 1 1043 1040 1157 # B N B
3246 2 1040 1157 1158 # N B N
3247 2 1040 1157 1162 # N B N
3248 1 1041 1042 1043 # B N B
3249 2 1042 1041 1046 # N B N
3250 1 1041 1046 1045 # B N B
3251 1 1041 1046 1047 # B N B
3252 2 1042 1043 1044 # N B N
3253 1 1043 1044 1047 # B N B
3254 1 1043 1044 1161 # B N B
3255 2 1044 1047 1046 # N B N
3256 2 1044 1047 1048 # N B N
3257 1 1047 1044 1161 # B N B
3258 2 1044 1161 1162 # N B N
3259 2 1044 1161 1166 # N B N
3260 1 1045 1046 1047 # B N B
3261 2 1046 1045 1050 # N B N
3262 1 1045 1050 1049 # B N B
3263 1 1045 1050 1051 # B N B
3264 2 1046 1047 1048 # N B N
3265 1 1047 1048 1051 # B N B
3266 1 1047 1048 1165 # B N B
3267 2 1048 1051 1050 # N B N
3268 2 1048 1051 1052 # N B N
3269 1 1051 1048 1165 # B N B
3270 2 1048 1165 1166 # N B N
3271 2 1048 1165 1170 # N B N
3272 1 1049 1050 1051 # B N B
3273 2 1050 1049 1054 # N B N
3274 1 1049 1054 1053 # B N B
3275 1 1049 1054 1055 # B N B
3276 2 1050 1051 1052 # N B N
3277 1 1051 1052 1055 # B N B
3278 1 1051 1052 1169 # B N B
3279 2 1052 1055 1054 # N B N
3280 2 1052 1055 1056 # N B N
3281 1 1055 1052 1169 # B N B
3282 2 1052 1169 1170 # N B N
3283 2 1052 1169 1174 # N B N
3284 1 1053 1054 1055 # B N B
3285 2 1054 1053 1058 # N B N
3286 1 1053 1058 1057 # B N B
3287 1 1053 1058 1059 # B N B
3288 2 1054 1055 1056 # N B N
3289 1 1055 1056 1059 # B N B
3290 1 1055 1056 1173 # B N B
3291 2 1056 1059 1058 # N B N
3292 2 1056 1059 1060 # N B N
3293 1 1059 1056 1173 # B N B
3294 2 1056 1173 1174 # N B N
3295 2 1056 1173 1178 # N B N
3296 1 1057 1058 1059 # B N B
3297 2 1058 1057 1062 # N B N
3298 1 1057 1062 1061 # B N B
3299 1 1057 1062 1063 # B N B
3300 2 1058 1059 1060 # N B N
3301 1 1059 1060 1063 # B N B
3302 1 1059 1060 1177 # B N B
3303 2 1060 1063 1062 # N B N
3304 2 1060 1063 1064 # N B N
3305 1 1063 1060 1177 # B N B
3306 2 1060 1177 1178 # N B N
3307 2 1060 1177 1182 # N B N
3308 1 1061 1062 1063 # B N B
3309 2 1062 1061 1066 # N B N
3310 1 1061 1066 1065 # B N B
3311 1 1061 1066 1067 # B N B
3312 2 1062 1063 1064 # N B N
3313 1 1063 1064 1067 # B N B
3314 1 1063 1064 1181 # B N B
3315 2 1064 1067 1066 # N B N
3316 2 1064 1067 1068 # N B N
3317 1 1067 1064 1181 # B N B
3318 2 1064 1181 1182 # N B N
3319 2 1064 1181 1186 # N B N
3320 1 1065 1066 1067 # B N B
3321 2 1066 1065 1070 # N B N
3322 1 1065 1070 1069 # B N B
3323 1 1065 1070 1071 # B N B
3324 2 1066 1067 1068 # N B N
3325 1 1067 1068 1071 # B N B
3326 1 1067 1068 1185 # B N B
3327 2 1068 1071 1070 # N B N
3328 2 1068 1071 1072 # N B N
3329 1 1071 1068 1185 # B N B
3330 2 1068 1185 1186 # N B N
3331 2 1068 1185 1190 # N B N
3332 1 1069 1070 1071 # B N B
3333 2 1070 1069 1074 # N B N
3334 1 1069 1074 1073 # B N B
3335 1 1069 1074 1075 # B N B
3336 2 1070 1071 1072 # N B N
3337 1 1071 1072 1075 # B N B
3338 1 1071 1072 1189 # B N B
3339 2 1072 1075 1074 # N B N
3340 2 1072 1075 1076 # N B N
3341 1 1075 1072 1189 # B N B
3342 2 1072 1189 1190 # N B N
3343 2 1072 1189 1194 # N B N
3344 1 1073 1074 1075 # B N B
3345 2 1074 1073 1078 # N B N
3346 1 1073 1078 1077 # B N B
3347 1 1073 1078 1079 # B N B
3348 2 1074 1075 1076 # N B N
3349 1 1075 1076 1079 # B N B
3350 1 1075 1076 1193 # B N B
3351 2 1076 1079 1078 # N B N
3352 2 1076 1079 1080 # N B N
3353 1 1079 1076 1193 # B N B
3354 2 1076 1193 1194 # N B N
3355 2 1076 1193 1198 # N B N
3356 1 1077 1078 1079 # B N B
3357 2 1078 1079 1080 # N B N
3358 1 1079 1080 1197 # B N B
3359 2 1080 1197 1198 # N B N
3360 2 1080 1197 1082 # N B N
3361 1 1081 1082 1083 # B N B
3362 1 1081 1082 1197 # B N B
3363 2 1082 1081 1086 # N B N
3364 1 1081 1086 1085 # B N B
3365 1 1081 1086 1087 # B N B
3366 2 1082 1083 1084 # N B N
3367 2 1082 1083 1200 # N B N
3368 1 1083 1082 1197 # B N B
3369 2 1082 1197 1198 # N B N
3370 1 1083 1084 1087 # B N B
3371 1 1083 1084 1201 # B N B
3372 2 1084 1083 1200 # N B N
3373 1 1083 1200 1199 # B N B
3374 1 1083 1200 1317 # B N B
3375 2 1084 1087 1086 # N B N
3376 2 1084 1087 1088 # N B N
3377 1 1087 1084 1201 # B N B
3378 2 1084 1201 1206 # N B N
3379 2 1084 1201 1202 # N B N
3380 1 1085 1086 1087 # B N B
3381 2 1086 1085 1090 # N B N
3382 1 1085 1090 1089 # B N B
3383 1 1085 1090 1091 # B N B
3384 2 1086 1087 1088 # N B N
3385 1 1087 1088 1091 # B N B
3386 1 1087 1088 1205 # B N B
3387 2 1088 1091 1090 # N B N
3388 2 1088 1091 1092 # N B N
3389 1 1091 1088 1205 # B N B
3390 2 1088 1205 1210 # N B N
3391 2 1088 1205 1206 # N B N
3392 1 1089 1090 1091 # B N B
3393 2 1090 1089 1094 # N B N
3394 1 1089 1094 1093 # B N B
3395 1 1089 1094 1095 # B N B
3396 2 1090 1091 1092 # N B N
3397 1 1091 1092 1095 # B N B
3398 1 1091 1092 1209 # B N B
3399 2 1092 1095 1094 # N B N
3400 2 1092 1095 1096 # N B N
3401 1 1095 1092 1209 # B N B
3402 2 1092 1209 1214 # N B N
3403 2 1092 1209 1210 # N B N
3404 1 1093 1094 1095 # B N B
3405 2 1094 1093 1098 # N B N
3406 1 1093 1098 1097 # B N B
3407 1 1093 1098 1099 # B N B
3408 2 1094 1095 1096 # N B N
3409 1 1095 1096 1099 # B N B
3410 1 1095 1096 1213 # B N B
3411 2 1096 1099 1098 # N B N
3412 2 1096 1099 1100 # N B N
3413 1 1099 1096 1213 # B N B
3414 2 1096 1213 1218 # N B N
3415 2 1096 1213 1214 # N B N
3416 1 1097 1098 1099 # B N B
3417 2 1098 1097 1102 # N B N
3418 1 1097 1102 1101 # B N B
3419 1 1097 1102 1103 # B N B
3420 2 1098 1099 1100 # N B N
3421 1 1099 1100 1103 # B N B
3422 1 1099 1100 1217 # B N B
3423 2 1100 1103 1102 # N B N
3424 2 1100 1103 1104 # N B N
3425 1 1103 1100 1217 # B N B
3426 2 1100 1217 1222 # N B N
3427 2 1100 1217 1218 # N B N
3428 1 1101 1102 1103 # B N B
3429 2 1102 1101 1106 # N B N
3430 1 1101 1106 1105 # B N B
3431 1 1101 1106 1107 # B N B
3432 2 1102 1103 1104 # N B N
3433 1 1103 1104 1107 # B N B
3434 1 1103 1104 1221 # B N B
3435 2 1104 1107 1106 # N B N
3436 2 1104 1107 1108 # N B N
3437 1 1107 1104 1221 # B N B
3438 2 1104 1221 1226 # N B N
3439 2 1104 1221 1222 # N B N
3440 1 1105 1106 1107 # B N B
3441 2 1106 1105 1110 # N B N
3442 1 1105 1110 1109 # B N B
3443 1 1105 1110 1111 # B N B
3444 2 1106 1107 1108 # N B N
3445 1 1107 1108 1111 # B N B
3446 1 1107 1108 1225 # B N B
3447 2 1108 1111 1110 # N B N
3448 2 1108 1111 1112 # N B N
3449 1 1111 1108 1225 # B N B
3450 2 1108 1225 1230 # N B N
3451 2 1108 1225 1226 # N B N
3452 1 1109 1110 1111 # B N B
3453 2 1110 1109 1114 # N B N
3454 1 1109 1114 1113 # B N B
3455 1 1109 1114 1115 # B N B
3456 2 1110 1111 1112 # N B N
3457 1 1111 1112 1115 # B N B
3458 1 1111 1112 1229 # B N B
3459 2 1112 1115 1114 # N B N
3460 2 1112 1115 1116 # N B N
3461 1 1115 1112 1229 # B N B
3462 2 1112 1229 1234 # N B N
3463 2 1112 1229 1230 # N B N
3464 1 1113 1114 1115 # B N B
3465 2 1114 1113 1118 # N B N
3466 1 1113 1118 1117 # B N B
3467 1 1113 1118 1119 # B N B
3468 2 1114 1115 1116 # N B N
3469 1 1115 1116 1119 # B N B
3470 1 1115 1116 1233 # B N B
3471 2 1116 1119 1118 # N B N
3472 2 1116 1119 1120 # N B N
3473 1 1119 1116 1233 # B N B
3474 2 1116 1233 1238 # N B N
3475 2 1116 1233 1234 # N B N
3476 1 1117 1118 1119 # B N B
3477 2 1118 1117 1122 # N B N
3478 1 1117 1122 1121 # B N B
3479 1 1117 1122 1123 # B N B
3480 2 1118 1119 1120 # N B N
3481 1 1119 1120 1123 # B N B
3482 1 1119 1120 1237 # B N B
3483 2 1120 1123 1122 # N B N
3484 2 1120 1123 1124 # N B N
3485 1 1123 1120 1237 # B N B
3486 2 1120 1237 1242 # N B N
3487 2 1120 1237 1238 # N B N
3488 1 1121 1122 1123 # B N B
3489 2 1122 1121 1126 # N B N
3490 1 1121 1126 1125 # B N B
3491 1 1121 1126 1127 # B N B
3492 2 1122 1123 1124 # N B N
3493 1 1123 1124 1127 # B N B
3494 1 1123 1124 1241 # B N B
3495 2 1124 1127 1126 # N B N
3496 2 1124 1127 1128 # N B N
3497 1 1127 1124 1241 # B N B
3498 2 1124 1241 1246 # N B N
3499 2 1124 1241 1242 # N B N
3500 1 1125 1126 1127 # B N B
3501 2 1126 1125 1130 # N B N
3502 1 1125 1130 1129 # B N B
3503 1 1125 1130 1131 # B N B
3504 2 1126 1127 1128 # N B N
3505 1 1127 1128 1131 # B N B
3506 1 1127 1128 1245 # B N B
3507 2 1128 1131 1130 # N B N
3508 2 1128 1131 1132 # N B N
3509 1 1131 1128 1245 # B N B
3510 2 1128 1245 1250 # N B N
3511 2 1128 1245 1246 # N B N
3512 1 1129 1130 1131 # B N B
3513 2 1130 1129 1134 # N B N
3514 1 1129 1134 1133 # B N B
3515 1 1129 1134 1135 # B N B
3516 2 1130 1131 1132 # N B N
3517 1 1131 1132 1135 # B N B
3518 1 1131 1132 1249 # B N B
3519 2 1132 1135 1134 # N B N
3520 2 1132 1135 1136 # N B N
3521 1 1135 1132 1249 # B N B
3522 2 1132 1249 1254 # N B N
3523 2 1132 1249 1250 # N B N
3524 1 1133 1134 1135 # B N B
3525 2 1134 1133 1138 # N B N
3526 1 1133 1138 1137 # B N B
3527 1 1133 1138 1139 # B N B
3528 2 1134 1135 1136 # N B N
3529 1 1135 1136 1139 # B N B
3530 1 1135 1136 1253 # B N B
3531 2 1136 1139 1138 # N B N
3532 2 1136 1139 1140 # N B N
3533 1 1139 1136 1253 # B N B
3534 2 1136 1253 1258 # N B N
3535 2 1136 1253 1254 # N B N
3536 1 1137 1138 1139 # B N B
3537 2 1138 1137 1142 # N B N
3538 1 1137 1142 1141 # B N B
3539 1 1137 1142 1143 # B N B
3540 2 1138 1139 1140 # N B N
3541 1 1139 1140 1143 # B N B
3542 1 1139 1140 1257 # B N B
3543 2 1140 1143 1142 # N B N
3544 2 1140 1143 1144 # N B N
3545 1 1143 1140 1257 # B N B
3546 2 1140 1257 1262 # N B N
3547 2 1140 1257 1258 # N B N
3548 1 1141 1142 1143 # B N B
3549 2 1142 1141 1146 # N B N
3550 1 1141 1146 1145 # B N B
3551 1 1141 1146 1147 # B N B
3552 2 1142 1143 1144 # N B N
3553 1 1143 1144 1147 # B N B
3554 1 1143 1144 1261 # B N B
3555 2 1144 1147 1146 # N B N
3556 2 1144 1147 1148 # N B N
3557 1 1147 1144 1261 # B N B
3558 2 1144 1261 1266 # N B N
3559 2 1144 1261 1262 # N B N
3560 1 1145 1146 1147 # B N B
3561 2 1146 1145 1150 # N B N
3562 1 1145 1150 1149 # B N B
3563 1 1145 1150 1151 # B N B
3564 2 1146 1147 1148 # N B N
3565 1 1147 1148 1151 # B N B
3566 1 1147 1148 1265 # B N B
3567 2 1148 1151 1150 # N B N
3568 2 1148 1151 1152 # N B N
3569 1 1151 1148 1265 # B N B
3570 2 1148 1265 1270 # N B N
3571 2 1148 1265 1266 # N B N
3572 1 1149 1150 1151 # B N B
3573 2 1150 1149 1154 # N B N
3574 1 1149 1154 1153 # B N B
3575 1 1149 1154 1155 # B N B
3576 2 1150 1151 1152 # N B N
3577 1 1151 1152 1155 # B N B
3578 1 1151 1152 1269 # B N B
3579 2 1152 1155 1154 # N B N
3580 2 1152 1155 1156 # N B N
3581 1 1155 1152 1269 # B N B
3582 2 1152 1269 1274 # N B N
3583 2 1152 1269 1270 # N B N
3584 1 1153 1154 1155 # B N B
3585 2 1154 1153 1158 # N B N
3586 1 1153 1158 1157 # B N B
3587 1 1153 1158 1159 # B N B
3588 2 1154 1155 1156 # N B N
3589 1 1155 1156 1159 # B N B
3590 1 1155 1156 1273 # B N B
3591 2 1156 1159 1158 # N B N
3592 2 1156 1159 1160 # N B N
3593 1 1159 1156 1273 # B N B
3594 2 1156 1273 1278 # N B N
3595 2 1156 1273 1274 # N B N
3596 1 1157 1158 1159 # B N B
3597 2 1158 1157 1162 # N B N
3598 1 1157 1162 1161 # B N B
3599 1 1157 1162 1163 # B N B
3600 2 1158 1159 1160 # N B N
3601 1 1159 1160 1163 # B N B
3602 1 1159 1160 1277 # B N B
3603 2 1160 1163 1162 # N B N
3604 2 1160 1163 1164 # N B N
3605 1 1163 1160 1277 # B N B
3606 2 1160 1277 1282 # N B N
3607 2 1160 1277 1278 # N B N
3608 1 1161 1162 1163 # B N B
3609 2 1162 1161 1166 # N B N
3610 1 1161 1166 1165 # B N B
3611 1 1161 1166 1167 # B N B
3612 2 1162 1163 1164 # N B N
3613 1 1163 1164 1167 # B N B
3614 1 1163 1164 1281 # B N B
3615 2 1164 1167 1166 # N B N
3616 2 1164 1167 1168 # N B N
3617 1 1167 1164 1281 # B N B
3618 2 1164 1281 1286 # N B N
3619 2 1164 1281 1282 # N B N
3620 1 1165 1166 1167 # B N B
3621 2 1166 1165 1170 # N B N
3622 1 1165 1170 1169 # B N B
3623 1 1165 1170 1171 # B N B
3624 2 1166 1167 1168 # N B N
3625 1 1167 1168 1171 # B N B
3626 1 1167 1168 1285 # B N B
3627 2 1168 1171 1170 # N B N
3628 2 1168 1171 1172 # N B N
3629 1 1171 1168 1285 # B N B
3630 2 1168 1285 1290 # N B N
3631 2 1168 1285 1286 # N B N
3632 1 1169 1170 1171 # B N B
3633 2 1170 1169 1174 # N B N
3634 1 1169 1174 1173 # B N B
3635 1 1169 1174 1175 # B N B
3636 2 1170 1171 1172 # N B N
3637 1 1171 1172 1175 # B N B
3638 1 1171 1172 1289 # B N B
3639 2 1172 1175 1174 # N B N
3640 2 1172 1175 1176 # N B N
3641 1 1175 1172 1289 # B N B
3642 2 1172 1289 1294 # N B N
3643 2 1172 1289 1290 # N B N
3644 1 1173 1174 1175 # B N B
3645 2 1174 1173 1178 # N B N
3646 1 1173 1178 1177 # B N B
3647 1 1173 1178 1179 # B N B
3648 2 1174 1175 1176 # N B N
3649 1 1175 1176 1179 # B N B
3650 1 1175 1176 1293 # B N B
3651 2 1176 1179 1178 # N B N
3652 2 1176 1179 1180 # N B N
3653 1 1179 1176 1293 # B N B
3654 2 1176 1293 1298 # N B N
3655 2 1176 1293 1294 # N B N
3656 1 1177 1178 1179 # B N B
3657 2 1178 1177 1182 # N B N
3658 1 1177 1182 1181 # B N B
3659 1 1177 1182 1183 # B N B
3660 2 1178 1179 1180 # N B N
3661 1 1179 1180 1183 # B N B
3662 1 1179 1180 1297 # B N B
3663 2 1180 1183 1182 # N B N
3664 2 1180 1183 1184 # N B N
3665 1 1183 1180 1297 # B N B
3666 2 1180 1297 1302 # N B N
3667 2 1180 1297 1298 # N B N
3668 1 1181 1182 1183 # B N B
3669 2 1182 1181 1186 # N B N
3670 1 1181 1186 1185 # B N B
3671 1 1181 1186 1187 # B N B
3672 2 1182 1183 1184 # N B N
3673 1 1183 1184 1187 # B N B
3674 1 1183 1184 1301 # B N B
3675 2 1184 1187 1186 # N B N
3676 2 1184 1187 1188 # N B N
3677 1 1187 1184 1301 # B N B
3678 2 1184 1301 1306 # N B N
3679 2 1184 1301 1302 # N B N
3680 1 1185 1186 1187 # B N B
3681 2 1186 1185 1190 # N B N
3682 1 1185 1190 1189 # B N B
3683 1 1185 1190 1191 # B N B
3684 2 1186 1187 1188 # N B N
3685 1 1187 1188 1191 # B N B
3686 1 1187 1188 1305 # B N B
3687 2 1188 1191 1190 # N B N
3688 2 1188 1191 1192 # N B N
3689 1 1191 1188 1305 # B N B
3690 2 1188 1305 1310 # N B N
3691 2 1188 1305 1306 # N B N
3692 1 1189 1190 1191 # B N B
3693 2 1190 1189 1194 # N B N
3694 1 1189 1194 1193 # B N B
3695 1 1189 1194 1195 # B N B
3696 2 1190 1191 1192 # N B N
3697 1 1191 1192 1195 # B N B
3698 1 1191 1192 1309 # B N B
3699 2 1192 1195 1194 # N B N
3700 2 1192 1195 1196 # N B N
3701 1 1195 1192 1309 # B N B
3702 2 1192 1309 1314 # N B N
3703 2 1192 1309 1310 # N B N
3704 1 1193 1194 1195 # B N B
3705 2 1194 1193 1198 # N B N
3706 1 1193 1198 1197 # B N B
3707 1 1193 1198 1199 # B N B
3708 2 1194 1195 1196 # N B N
3709 1 1195 1196 1199 # B N B
3710 1 1195 1196 1313 # B N B
3711 2 1196 1199 1198 # N B N
3712 2 1196 1199 1200 # N B N
3713 1 1199 1196 1313 # B N B
3714 2 1196 1313 1318 # N B N
3715 2 1196 1313 1314 # N B N
3716 1 1197 1198 1199 # B N B
3717 2 1198 1199 1200 # N B N
3718 1 1199 1200 1317 # B N B
3719 2 1200 1317 1202 # N B N
3720 2 1200 1317 1318 # N B N
3721 1 1201 1206 1205 # B N B
3722 1 1201 1206 1207 # B N B
3723 1 1201 1202 1317 # B N B
3724 1 1201 1202 1203 # B N B
3725 2 1202 1201 1206 # N B N
3726 2 1202 1317 1318 # N B N
3727 2 1202 1203 1204 # N B N
3728 2 1202 1203 1320 # N B N
3729 1 1203 1202 1317 # B N B
3730 1 1203 1204 1207 # B N B
3731 1 1203 1204 1321 # B N B
3732 2 1204 1203 1320 # N B N
3733 1 1203 1320 1319 # B N B
3734 1 1203 1320 1437 # B N B
3735 2 1204 1207 1206 # N B N
3736 2 1204 1207 1208 # N B N
3737 1 1207 1204 1321 # B N B
3738 2 1204 1321 1326 # N B N
3739 2 1204 1321 1322 # N B N
3740 1 1205 1210 1209 # B N B
3741 1 1205 1210 1211 # B N B
3742 1 1205 1206 1207 # B N B
3743 2 1206 1205 1210 # N B N
3744 2 1206 1207 1208 # N B N
3745 1 1207 1208 1211 # B N B
3746 1 1207 1208 1325 # B N B
3747 2 1208 1211 1210 # N B N
3748 2 1208 1211 1212 # N B N
3749 1 1211 1208 1325 # B N B
3750 2 1208 1325 1330 # N B N
3751 2 1208 1325 1326 # N B N
3752 1 1209 1214 1213 # B N B
3753 1 1209 1214 1215 # B N B
3754 1 1209 1210 1211 # B N B
3755 2 1210 1209 1214 # N B N
3756 2 1210 1211 1212 # N B N
3757 1 1211 1212 1215 # B N B
3758 1 1211 1212 1329 # B N B
3759 2 1212 1215 1214 # N B N
3760 2 1212 1215 1216 # N B N
3761 1 1215 1212 1329 # B N B
3762 2 1212 1329 1334 # N B N
3763 2 1212 1329 1330 # N B N
3764 1 1213 1218 1217 # B N B
3765 1 1213 1218 1219 # B N B
3766 1 1213 1214 1215 # B N B
3767 2 1214 1213 1218 # N B N
3768 2 1214 1215 1216 # N B N
3769 1 1215 1216 1219 # B N B
3770 1 1215 1216 1333 # B N B
3771 2 1216 1219 1218 # N B N
3772 2 1216 1219 1220 # N B N
3773 1 1219 1216 1333 # B N B
3774 2 1216 1333 1338 # N B N
3775 2 1216 1333 1334 # N B N
3776 1 1217 1222 1221 # B N B
3777 1 1217 1222 1223 # B N B
3778 1 1217 1218 1219 # B N B
3779 2 1218 1217 1222 # N B N
3780 2 1218 1219 1220 # N B N
3781 1 1219 1220 1223 # B N B
3782 1 1219 1220 1337 # B N B
3783 2 1220 1223 1222 # N B N
3784 2 1220 1223 1224 # N B N
3785 1 1223 1220 1337 # B N B
3786 2 1220 1337 1342 # N B N
3787 2 1220 1337 1338 # N B N
3788 1 1221 1226 1225 # B N B
3789 1 1221 1226 1227 # B N B
3790 1 1221 1222 1223 # B N B
3791 2 1222 1221 1226 # N B N
3792 2 1222 1223 1224 # N B N
3793 1 1223 1224 1227 # B N B
3794 1 1223 1224 1341 # B N B
3795 2 1224 1227 1226 # N B N
3796 2 1224 1227 1228 # N B N
3797 1 1227 1224 1341 # B N B
3798 2 1224 1341 1346 # N B N
3799 2 1224 1341 1342 # N B N
3800 1 1225 1230 1229 # B N B
3801 1 1225 1230 1231 # B N B
3802 1 1225 1226 1227 # B N B
3803 2 1226 1225 1230 # N B N
3804 2 1226 1227 1228 # N B N
3805 1 1227 1228 1231 # B N B
3806 1 1227 1228 1345 # B N B
3807 2 1228 1231 1230 # N B N
3808 2 1228 1231 1232 # N B N
3809 1 1231 1228 1345 # B N B
3810 2 1228 1345 1350 # N B N
3811 2 1228 1345 1346 # N B N
3812 1 1229 1234 1233 # B N B
3813 1 1229 1234 1235 # B N B
3814 1 1229 1230 1231 # B N B
3815 2 1230 1229 1234 # N B N
3816 2 1230 1231 1232 # N B N
3817 1 1231 1232 1235 # B N B
3818 1 1231 1232 1349 # B N B
3819 2 1232 1235 1234 # N B N
3820 2 1232 1235 1236 # N B N
3821 1 1235 1232 1349 # B N B
3822 2 1232 1349 1354 # N B N
3823 2 1232 1349 1350 # N B N
3824 1 1233 1238 1237 # B N B
3825 1 1233 1238 1239 # B N B
3826 1 1233 1234 1235 # B N B
3827 2 1234 1233 1238 # N B N
3828 2 1234 1235 1236 # N B N
3829 1 1235 1236 1239 # B N B
3830 1 1235 1236 1353 # B N B
3831 2 1236 1239 1238 # N B N
3832 2 1236 1239 1240 # N B N
3833 1 1239 1236 1353 # B N B
3834 2 1236 1353 1358 # N B N
3835 2 1236 1353 1354 # N B N
3836 1 1237 1242 1241 # B N B
3837 1 1237 1242 1243 # B N B
3838 1 1237 1238 1239 # B N B
3839 2 1238 1237 1242 # N B N
3840 2 1238 1239 1240 # N B N
3841 1 1239 1240 1243 # B N B
3842 1 1239 1240 1357 # B N B
3843 2 1240 1243 1242 # N B N
3844 2 1240 1243 1244 # N B N
3845 1 1243 1240 1357 # B N B
3846 2 1240 1357 1362 # N B N
3847 2 1240 1357 1358 # N B N
3848 1 1241 1246 1245 # B N B
3849 1 1241 1246 1247 # B N B
3850 1 1241 1242 1243 # B N B
3851 2 1242 1241 1246 # N B N
3852 2 1242 1243 1244 # N B N
3853 1 1243 1244 1247 # B N B
3854 1 1243 1244 1361 # B N B
3855 2 1244 1247 1246 # N B N
3856 2 1244 1247 1248 # N B N
3857 1 1247 1244 1361 # B N B
3858 2 1244 1361 1366 # N B N
3859 2 1244 1361 1362 # N B N
3860 1 1245 1250 1249 # B N B
3861 1 1245 1250 1251 # B N B
3862 1 1245 1246 1247 # B N B
3863 2 1246 1245 1250 # N B N
3864 2 1246 1247 1248 # N B N
3865 1 1247 1248 1251 # B N B
3866 1 1247 1248 1365 # B N B
3867 2 1248 1251 1250 # N B N
3868 2 1248 1251 1252 # N B N
3869 1 1251 1248 1365 # B N B
3870 2 1248 1365 1370 # N B N
3871 2 1248 1365 1366 # N B N
3872 1 1249 1254 1253 # B N B
3873 1 1249 1254 1255 # B N B
3874 1 1249 1250 1251 # B N B
3875 2 1250 1249 1254 # N B N
3876 2 1250 1251 1252 # N B N
3877 1 1251 1252 1255 # B N B
3878 1 1251 1252 1369 # B N B
3879 2 1252 1255 1254 # N B N
3880 2 1252 1255 1256 # N B N
3881 1 1255 1252 1369 # B N B
3882 2 1252 1369 1374 # N B N
3883 2 1252 1369 1370 # N B N
3884 1 1253 1258 1257 # B N B
3885 1 1253 1258 1259 # B N B
3886 1 1253 1254 1255 # B N B
3887 2 1254 1253 1258 # N B N
3888 2 1254 1255 1256 # N B N
3889 1 1255 1256 1259 # B N B
3890 1 1255 1256 1373 # B N B
3891 2 1256 1259 1258 # N B N
3892 2 1256 1259 1260 # N B N
3893 1 1259 1256 1373 # B N B
3894 2 1256 1373 1378 # N B N
3895 2 1256 1373 1374 # N B N
3896 1 1257 1262 1261 # B N B
3897 1 1257 1262 1263 # B N B
3898 1 1257 1258 1259 # B N B
3899 2 1258 1257 1262 # N B N
3900 2 1258 1259 1260 # N B N
3901 1 1259 1260 1263 # B N B
3902 1 1259 1260 1377 # B N B
3903 2 1260 1263 1262 # N B N
3904 2 1260 1263 1264 # N B N
3905 1 1263 1260 1377 # B N B
3906 2 1260 1377 1382 # N B N
3907 2 1260 1377 1378 # N B N
3908 1 1261 1266 1265 # B N B
3909 1 1261 1266 1267 # B N B
3910 1 1261 1262 1263 # B N B
3911 2 1262 1261 1266 # N B N
3912 2 1262 1263 1264 # N B N
3913 1 1263 1264 1267 # B N B
3914 1 1263 1264 1381 # B N B
3915 2 1264 1267 1266 # N B N
3916 2 1264 1267 1268 # N B N
3917 1 1267 1264 1381 # B N B
3918 2 1264 1381 1386 # N B N
3919 2 1264 1381 1382 # N B N
3920 1 1265 1270 1269 # B N B
3921 1 1265 1270 1271 # B N B
3922 1 1265 1266 1267 # B N B
3923 2 1266 1265 1270 # N B N
3924 2 1266 1267 1268 # N B N
3925 1 1267 1268 1271 # B N B
3926 1 1267 1268 1385 # B N B
3927 2 1268 1271 1270 # N B N
3928 2 1268 1271 1272 # N B N
3929 1 1271 1268 1385 # B N B
3930 2 1268 1385 1390 # N B N
3931 2 1268 1385 1386 # N B N
3932 1 1269 1274 1273 # B N B
3933 1 1269 1274 1275 # B N B
3934 1 1269 1270 1271 # B N B
3935 2 1270 1269 1274 # N B N
3936 2 1270 1271 1272 # N B N
3937 1 1271 1272 1275 # B N B
3938 1 1271 1272 1389 # B N B
3939 2 1272 1275 1274 # N B N
3940 2 1272 1275 1276 # N B N
3941 1 1275 1272 1389 # B N B
3942 2 1272 1389 1394 # N B N
3943 2 1272 1389 1390 # N B N
3944 1 1273 1278 1277 # B N B
3945 1 1273 1278 1279 # B N B
3946 1 1273 1274 1275 # B N B
3947 2 1274 1273 1278 # N B N
3948 2 1274 1275 1276 # N B N
3949 1 1275 1276 1279 # B N B
3950 1 1275 1276 1393 # B N B
3951 2 1276 1279 1278 # N B N
3952 2 1276 1279 1280 # N B N
3953 1 1279 1276 1393 # B N B
3954 2 1276 1393 1398 # N B N
3955 2 1276 1393 1394 # N B N
3956 1 1277 1282 1281 # B N B
3957 1 1277 1282 1283 # B N B
3958 1 1277 1278 1279 # B N B
3959 2 1278 1277 1282 # N B N
3960 2 1278 1279 1280 # N B N
3961 1 1279 1280 1283 # B N B
3962 1 1279 1280 1397 # B N B
3963 2 1280 1283 1282 # N B N
3964 2 1280 1283 1284 # N B N
3965 1 1283 1280 1397 # B N B
3966 2 1280 1397 1402 # N B N
3967 2 1280 1397 1398 # N B N
3968 1 1281 1286 1285 # B N B
3969 1 1281 1286 1287 # B N B
3970 1 1281 1282 1283 # B N B
3971 2 1282 1281 1286 # N B N
3972 2 1282 1283 1284 # N B N
3973 1 1283 1284 1287 # B N B
3974 1 1283 1284 1401 # B N B
3975 2 1284 1287 1286 # N B N
3976 2 1284 1287 1288 # N B N
3977 1 1287 1284 1401 # B N B
3978 2 1284 1401 1406 # N B N
3979 2 1284 1401 1402 # N B N
3980 1 1285 1290 1289 # B N B
3981 1 1285 1290 1291 # B N B
3982 1 1285 1286 1287 # B N B
3983 2 1286 1285 1290 # N B N
3984 2 1286 1287 1288 # N B N
3985 1 1287 1288 1291 # B N B
3986 1 1287 1288 1405 # B N B
3987 2 1288 1291 1290 # N B N
3988 2 1288 1291 1292 # N B N
3989 1 1291 1288 1405 # B N B
3990 2 1288 1405 1410 # N B N
3991 2 1288 1405 1406 # N B N
3992 1 1289 1294 1293 # B N B
3993 1 1289 1294 1295 # B N B
3994 1 1289 1290 1291 # B N B
3995 2 1290 1289 1294 # N B N
3996 2 1290 1291 1292 # N B N
3997 1 1291 1292 1295 # B N B
3998 1 1291 1292 1409 # B N B
3999 2 1292 1295 1294 # N B N
4000 2 1292 1295 1296 # N B N
4001 1 1295 1292 1409 # B N B
4002 2 1292 1409 1414 # N B N
4003 2 1292 1409 1410 # N B N
4004 1 1293 1298 1297 # B N B
4005 1 1293 1298 1299 # B N B
4006 1 1293 1294 1295 # B N B
4007 2 1294 1293 1298 # N B N
4008 2 1294 1295 1296 # N B N
4009 1 1295 1296 1299 # B N B
4010 1 1295 1296 1413 # B N B
4011 2 1296 1299 1298 # N B N
4012 2 1296 1299 1300 # N B N
4013 1 1299 1296 1413 # B N B
4014 2 1296 1413 1418 # N B N
4015 2 1296 1413 1414 # N B N
4016 1 1297 1302 1301 # B N B
4017 1 1297 1302 1303 # B N B
4018 1 1297 1298 1299 # B N B
4019 2 1298 1297 1302 # N B N
4020 2 1298 1299 1300 # N B N
4021 1 1299 1300 1303 # B N B
4022 1 1299 1300 1417 # B N B
4023 2 1300 1303 1302 # N B N
4024 2 1300 1303 1304 # N B N
4025 1 1303 1300 1417 # B N B
4026 2 1300 1417 1422 # N B N
4027 2 1300 1417 1418 # N B N
4028 1 1301 1306 1305 # B N B
4029 1 1301 1306 1307 # B N B
4030 1 1301 1302 1303 # B N B
4031 2 1302 1301 1306 # N B N
4032 2 1302 1303 1304 # N B N
4033 1 1303 1304 1307 # B N B
4034 1 1303 1304 1421 # B N B
4035 2 1304 1307 1306 # N B N
4036 2 1304 1307 1308 # N B N
4037 1 1307 1304 1421 # B N B
4038 2 1304 1421 1426 # N B N
4039 2 1304 1421 1422 # N B N
4040 1 1305 1310 1309 # B N B
4041 1 1305 1310 1311 # B N B
4042 1 1305 1306 1307 # B N B
4043 2 1306 1305 1310 # N B N
4044 2 1306 1307 1308 # N B N
4045 1 1307 1308 1311 # B N B
4046 1 1307 1308 1425 # B N B
4047 2 1308 1311 1310 # N B N
4048 2 1308 1311 1312 # N B N
4049 1 1311 1308 1425 # B N B
4050 2 1308 1425 1430 # N B N
4051 2 1308 1425 1426 # N B N
4052 1 1309 1314 1313 # B N B
4053 1 1309 1314 1315 # B N B
4054 1 1309 1310 1311 # B N B
4055 2 1310 1309 1314 # N B N
4056 2 1310 1311 1312 # N B N
4057 1 1311 1312 1315 # B N B
4058 1 1311 1312 1429 # B N B
4059 2 1312 1315 1314 # N B N
4060 2 1312 1315 1316 # N B N
4061 1 1315 1312 1429 # B N B
4062 2 1312 1429 1434 # N B N
4063 2 1312 1429 1430 # N B N
4064 1 1313 1318 1317 # B N B
4065 1 1313 1318 1319 # B N B
4066 1 1313 1314 1315 # B N B
4067 2 1314 1313 1318 # N B N
4068 2 1314 1315 1316 # N B N
4069 1 1315 1316 1319 # B N B
4070 1 1315 1316 1433 # B N B
4071 2 1316 1319 1318 # N B N
4072 2 1316 1319 1320 # N B N
4073 1 1319 1316 1433 # B N B
4074 2 1316 1433 1438 # N B N
4075 2 1316 1433 1434 # N B N
4076 1 1317 1318 1319 # B N B
4077 2 1318 1319 1320 # N B N
4078 1 1319 1320 1437 # B N B
4079 2 1320 1437 1322 # N B N
4080 2 1320 1437 1438 # N B N
4081 1 1321 1326 1325 # B N B
4082 1 1321 1326 1327 # B N B
4083 1 1321 1322 1437 # B N B
4084 1 1321 1322 1323 # B N B
4085 2 1322 1321 1326 # N B N
4086 2 1322 1437 1438 # N B N
4087 2 1322 1323 1324 # N B N
4088 2 1322 1323 1440 # N B N
4089 1 1323 1322 1437 # B N B
4090 1 1323 1324 1327 # B N B
4091 1 1323 1324 1441 # B N B
4092 2 1324 1323 1440 # N B N
4093 1 1323 1440 1439 # B N B
4094 1 1323 1440 1557 # B N B
4095 2 1324 1327 1326 # N B N
4096 2 1324 1327 1328 # N B N
4097 1 1327 1324 1441 # B N B
4098 2 1324 1441 1446 # N B N
4099 2 1324 1441 1442 # N B N
4100 1 1325 1330 1329 # B N B
4101 1 1325 1330 1331 # B N B
4102 1 1325 1326 1327 # B N B
4103 2 1326 1325 1330 # N B N
4104 2 1326 1327 1328 # N B N
4105 1 1327 1328 1331 # B N B
4106 1 1327 1328 1445 # B N B
4107 2 1328 1331 1330 # N B N
4108 2 1328 1331 1332 # N B N
4109 1 1331 1328 1445 # B N B
4110 2 1328 1445 1450 # N B N
4111 2 1328 1445 1446 # N B N
4112 1 1329 1334 1333 # B N B
4113 1 1329 1334 1335 # B N B
4114 1 1329 1330 1331 # B N B
4115 2 1330 1329 1334 # N B N
4116 2 1330 1331 1332 # N B N
4117 1 1331 1332 1335 # B N B
4118 1 1331 1332 1449 # B N B
4119 2 1332 1335 1334 # N B N
4120 2 1332 1335 1336 # N B N
4121 1 1335 1332 1449 # B N B
4122 2 1332 1449 1454 # N B N
4123 2 1332 1449 1450 # N B N
4124 1 1333 1338 1337 # B N B
4125 1 1333 1338 1339 # B N B
4126 1 1333 1334 1335 # B N B
4127 2 1334 1333 1338 # N B N
4128 2 1334 1335 1336 # N B N
4129 1 1335 1336 1339 # B N B
4130 1 1335 1336 1453 # B N B
4131 2 1336 1339 1338 # N B N
4132 2 1336 1339 1340 # N B N
4133 1 1339 1336 1453 # B N B
4134 2 1336 1453 1458 # N B N
4135 2 1336 1453 1454 # N B N
4136 1 1337 1342 1341 # B N B
4137 1 1337 1342 1343 # B N B
4138 1 1337 1338 1339 # B N B
4139 2 1338 1337 1342 # N B N
4140 2 1338 1339 1340 # N B N
4141 1 1339 1340 1343 # B N B
4142 1 1339 1340 1457 # B N B
4143 2 1340 1343 1342 # N B N
4144 2 1340 1343 1344 # N B N
4145 1 1343 1340 1457 # B N B
4146 2 1340 1457 1462 # N B N
4147 2 1340 1457 1458 # N B N
4148 1 1341 1346 1345 # B N B
4149 1 1341 1346 1347 # B N B
4150 1 1341 1342 1343 # B N B
4151 2 1342 1341 1346 # N B N
4152 2 1342 1343 1344 # N B N
4153 1 1343 1344 1347 # B N B
4154 1 1343 1344 1461 # B N B
4155 2 1344 1347 1346 # N B N
4156 2 1344 1347 1348 # N B N
4157 1 1347 1344 1461 # B N B
4158 2 1344 1461 1466 # N B N
4159 2 1344 1461 1462 # N B N
4160 1 1345 1350 1349 # B N B
4161 1 1345 1350 1351 # B N B
4162 1 1345 1346 1347 # B N B
4163 2 1346 1345 1350 # N B N
4164 2 1346 1347 1348 # N B N
4165 1 1347 1348 1351 # B N B
4166 1 1347 1348 1465 # B N B
4167 2 1348 1351 1350 # N B N
4168 2 1348 1351 1352 # N B N
4169 1 1351 1348 1465 # B N B
4170 2 1348 1465 1470 # N B N
4171 2 1348 1465 1466 # N B N
4172 1 1349 1354 1353 # B N B
4173 1 1349 1354 1355 # B N B
4174 1 1349 1350 1351 # B N B
4175 2 1350 1349 1354 # N B N
4176 2 1350 1351 1352 # N B N
4177 1 1351 1352 1355 # B N B
4178 1 1351 1352 1469 # B N B
4179 2 1352 1355 1354 # N B N
4180 2 1352 1355 1356 # N B N
4181 1 1355 1352 1469 # B N B
4182 2 1352 1469 1474 # N B N
4183 2 1352 1469 1470 # N B N
4184 1 1353 1358 1357 # B N B
4185 1 1353 1358 1359 # B N B
4186 1 1353 1354 1355 # B N B
4187 2 1354 1353 1358 # N B N
4188 2 1354 1355 1356 # N B N
4189 1 1355 1356 1359 # B N B
4190 1 1355 1356 1473 # B N B
4191 2 1356 1359 1358 # N B N
4192 2 1356 1359 1360 # N B N
4193 1 1359 1356 1473 # B N B
4194 2 1356 1473 1478 # N B N
4195 2 1356 1473 1474 # N B N
4196 1 1357 1362 1361 # B N B
4197 1 1357 1362 1363 # B N B
4198 1 1357 1358 1359 # B N B
4199 2 1358 1357 1362 # N B N
4200 2 1358 1359 1360 # N B N
4201 1 1359 1360 1363 # B N B
4202 1 1359 1360 1477 # B N B
4203 2 1360 1363 1362 # N B N
4204 2 1360 1363 1364 # N B N
4205 1 1363 1360 1477 # B N B
4206 2 1360 1477 1482 # N B N
4207 2 1360 1477 1478 # N B N
4208 1 1361 1366 1365 # B N B
4209 1 1361 1366 1367 # B N B
4210 1 1361 1362 1363 # B N B
4211 2 1362 1361 1366 # N B N
4212 2 1362 1363 1364 # N B N
4213 1 1363 1364 1367 # B N B
4214 1 1363 1364 1481 # B N B
4215 2 1364 1367 1366 # N B N
4216 2 1364 1367 1368 # N B N
4217 1 1367 1364 1481 # B N B
4218 2 1364 1481 1486 # N B N
4219 2 1364 1481 1482 # N B N
4220 1 1365 1370 1369 # B N B
4221 1 1365 1370 1371 # B N B
4222 1 1365 1366 1367 # B N B
4223 2 1366 1365 1370 # N B N
4224 2 1366 1367 1368 # N B N
4225 1 1367 1368 1371 # B N B
4226 1 1367 1368 1485 # B N B
4227 2 1368 1371 1370 # N B N
4228 2 1368 1371 1372 # N B N
4229 1 1371 1368 1485 # B N B
4230 2 1368 1485 1490 # N B N
4231 2 1368 1485 1486 # N B N
4232 1 1369 1374 1373 # B N B
4233 1 1369 1374 1375 # B N B
4234 1 1369 1370 1371 # B N B
4235 2 1370 1369 1374 # N B N
4236 2 1370 1371 1372 # N B N
4237 1 1371 1372 1375 # B N B
4238 1 1371 1372 1489 # B N B
4239 2 1372 1375 1374 # N B N
4240 2 1372 1375 1376 # N B N
4241 1 1375 1372 1489 # B N B
4242 2 1372 1489 1494 # N B N
4243 2 1372 1489 1490 # N B N
4244 1 1373 1378 1377 # B N B
4245 1 1373 1378 1379 # B N B
4246 1 1373 1374 1375 # B N B
4247 2 1374 1373 1378 # N B N
4248 2 1374 1375 1376 # N B N
4249 1 1375 1376 1379 # B N B
4250 1 1375 1376 1493 # B N B
4251 2 1376 1379 1378 # N B N
4252 2 1376 1379 1380 # N B N
4253 1 1379 1376 1493 # B N B
4254 2 1376 1493 1498 # N B N
4255 2 1376 1493 1494 # N B N
4256 1 1377 1382 1381 # B N B
4257 1 1377 1382 1383 # B N B
4258 1 1377 1378 1379 # B N B
4259 2 1378 1377 1382 # N B N
4260 2 1378 1379 1380 # N B N
4261 1 1379 1380 1383 # B N B
4262 1 1379 1380 1497 # B N B
4263 2 1380 1383 1382 # N B N
4264 2 1380 1383 1384 # N B N
4265 1 1383 1380 1497 # B N B
4266 2 1380 1497 1502 # N B N
4267 2 1380 1497 1498 # N B N
4268 1 1381 1386 1385 # B N B
4269 1 1381 1386 1387 # B N B
4270 1 1381 1382 1383 # B N B
4271 2 1382 1381 1386 # N B N
4272 2 1382 1383 1384 # N B N
4273 1 1383 1384 1387 # B N B
4274 1 1383 1384 1501 # B N B
4275 2 1384 1387 1386 # N B N
4276 2 1384 1387 1388 # N B N
4277 1 1387 1384 1501 # B N B
4278 2 1384 1501 1506 # N B N
4279 2 1384 1501 1502 # N B N
4280 1 1385 1390 1389 # B N B
4281 1 1385 1390 1391 # B N B
4282 1 1385 1386 1387 # B N B
4283 2 1386 1385 1390 # N B N
4284 2 1386 1387 1388 # N B N
4285 1 1387 1388 1391 # B N B
4286 1 1387 1388 1505 # B N B
4287 2 1388 1391 1390 # N B N
4288 2 1388 1391 1392 # N B N
4289 1 1391 1388 1505 # B N B
4290 2 1388 1505 1510 # N B N
4291 2 1388 1505 1506 # N B N
4292 1 1389 1394 1393 # B N B
4293 1 1389 1394 1395 # B N B
4294 1 1389 1390 1391 # B N B
4295 2 1390 1389 1394 # N B N
4296 2 1390 1391 1392 # N B N
4297 1 1391 1392 1395 # B N B
4298 1 1391 1392 1509 # B N B
4299 2 1392 1395 1394 # N B N
4300 2 1392 1395 1396 # N B N
4301 1 1395 1392 1509 # B N B
4302 2 1392 1509 1514 # N B N
4303 2 1392 1509 1510 # N B N
4304 1 1393 1398 1397 # B N B
4305 1 1393 1398 1399 # B N B
4306 1 1393 1394 1395 # B N B
4307 2 1394 1393 1398 # N B N
4308 2 1394 1395 1396 # N B N
4309 1 1395 1396 1399 # B N B
4310 1 1395 1396 1513 # B N B
4311 2 1396 1399 1398 # N B N
4312 2 1396 1399 1400 # N B N
4313 1 1399 1396 1513 # B N B
4314 2 1396 1513 1518 # N B N
4315 2 1396 1513 1514 # N B N
4316 1 1397 1402 1401 # B N B
4317 1 1397 1402 1403 # B N B
4318 1 1397 1398 1399 # B N B
4319 2 1398 1397 1402 # N B N
4320 2 1398 1399 1400 # N B N
4321 1 1399 1400 1403 # B N B
4322 1 1399 1400 1517 # B N B
4323 2 1400 1403 1402 # N B N
4324 2 1400 1403 1404 # N B N
4325 1 1403 1400 1517 # B N B
4326 2 1400 1517 1522 # N B N
4327 2 1400 1517 1518 # N B N
4328 1 1401 1406 1405 # B N B
4329 1 1401 1406 1407 # B N B
4330 1 1401 1402 1403 # B N B
4331 2 1402 1401 1406 # N B N
4332 2 1402 1403 1404 # N B N
4333 1 1403 1404 1407 # B N B
4334 1 1403 1404 1521 # B N B
4335 2 1404 1407 1406 # N B N
4336 2 1404 1407 1408 # N B N
4337 1 1407 1404 1521 # B N B
4338 2 1404 1521 1526 # N B N
4339 2 1404 1521 1522 # N B N
4340 1 1405 1410 1409 # B N B
4341 1 1405 1410 1411 # B N B
4342 1 1405 1406 1407 # B N B
4343 2 1406 1405 1410 # N B N
4344 2 1406 1407 1408 # N B N
4345 1 1407 1408 1411 # B N B
4346 1 1407 1408 1525 # B N B
4347 2 1408 1411 1410 # N B N
4348 2 1408 1411 1412 # N B N
4349 1 1411 1408 1525 # B N B
4350 2 1408 1525 1530 # N B N
4351 2 1408 1525 1526 # N B N
4352 1 1409 1414 1413 # B N B
4353 1 1409 1414 1415 # B N B
4354 1 1409 1410 1411 # B N B
4355 2 1410 1409 1414 # N B N
4356 2 1410 1411 1412 # N B N
4357 1 1411 1412 1415 # B N B
4358 1 1411 1412 1529 # B N B
4359 2 1412 1415 1414 # N B N
4360 2 1412 1415 1416 # N B N
4361 1 1415 1412 1529 # B N B
4362 2 1412 1529 1534 # N B N
4363 2 1412 1529 1530 # N B N
4364 1 1413 1418 1417 # B N B
4365 1 1413 1418 1419 # B N B
4366 1 1413 1414 1415 # B N B
4367 2 1414 1413 1418 # N B N
4368 2 1414 1415 1416 # N B N
4369 1 1415 1416 1419 # B N B
4370 1 1415 1416 1533 # B N B
4371 2 1416 1419 1418 # N B N
4372 2 1416 1419 1420 # N B N
4373 1 1419 1416 1533 # B N B
4374 2 1416 1533 1538 # N B N
4375 2 1416 1533 1534 # N B N
4376 1 1417 1422 1421 # B N B
4377 1 1417 1422 1423 # B N B
4378 1 1417 1418 1419 # B N B
4379 2 1418 1417 1422 # N B N
4380 2 1418 1419 1420 # N B N
4381 1 1419 1420 1423 # B N B
4382 1 1419 1420 1537 # B N B
4383 2 1420 1423 1422 # N B N
4384 2 1420 1423 1424 # N B N
4385 1 1423 1420 1537 # B N B
4386 2 1420 1537 1542 # N B N
4387 2 1420 1537 1538 # N B N
4388 1 1421 1426 1425 # B N B
4389 1 1421 1426 1427 # B N B
4390 1 1421 1422 1423 # B N B
4391 2 1422 1421 1426 # N B N
4392 2 1422 1423 1424 # N B N
4393 1 1423 1424 1427 # B N B
4394 1 1423 1424 1541 # B N B
4395 2 1424 1427 1426 # N B N
4396 2 1424 1427 1428 # N B N
4397 1 1427 1424 1541 # B N B
4398 2 1424 1541 1546 # N B N
4399 2 1424 1541 1542 # N B N
4400 1 1425 1430 1429 # B N B
4401 1 1425 1430 1431 # B N B
4402 1 1425 1426 1427 # B N B
4403 2 1426 1425 1430 # N B N
4404 2 1426 1427 1428 # N B N
4405 1 1427 1428 1431 # B N B
4406 1 1427 1428 1545 # B N B
4407 2 1428 1431 1430 # N B N
4408 2 1428 1431 1432 # N B N
4409 1 1431 1428 1545 # B N B
4410 2 1428 1545 1550 # N B N
4411 2 1428 1545 1546 # N B N
4412 1 1429 1434 1433 # B N B
4413 1 1429 1434 1435 # B N B
4414 1 1429 1430 1431 # B N B
4415 2 1430 1429 1434 # N B N
4416 2 1430 1431 1432 # N B N
4417 1 1431 1432 1435 # B N B
4418 1 1431 1432 1549 # B N B
4419 2 1432 1435 1434 # N B N
4420 2 1432 1435 1436 # N B N
4421 1 1435 1432 1549 # B N B
4422 2 1432 1549 1554 # N B N
4423 2 1432 1549 1550 # N B N
4424 1 1433 1438 1437 # B N B
4425 1 1433 1438 1439 # B N B
4426 1 1433 1434 1435 # B N B
4427 2 1434 1433 1438 # N B N
4428 2 1434 1435 1436 # N B N
4429 1 1435 1436 1439 # B N B
4430 1 1435 1436 1553 # B N B
4431 2 1436 1439 1438 # N B N
4432 2 1436 1439 1440 # N B N
4433 1 1439 1436 1553 # B N B
4434 2 1436 1553 1558 # N B N
4435 2 1436 1553 1554 # N B N
4436 1 1437 1438 1439 # B N B
4437 2 1438 1439 1440 # N B N
4438 1 1439 1440 1557 # B N B
4439 2 1440 1557 1442 # N B N
4440 2 1440 1557 1558 # N B N
4441 1 1441 1446 1445 # B N B
4442 1 1441 1446 1447 # B N B
4443 1 1441 1442 1557 # B N B
4444 1 1441 1442 1443 # B N B
4445 2 1442 1441 1446 # N B N
4446 2 1442 1557 1558 # N B N
4447 2 1442 1443 1444 # N B N
4448 2 1442 1443 1560 # N B N
4449 1 1443 1442 1557 # B N B
4450 1 1443 1444 1447 # B N B
4451 1 1443 1444 1561 # B N B
4452 2 1444 1443 1560 # N B N
4453 1 1443 1560 1559 # B N B
4454 1 1443 1560 1677 # B N B
4455 2 1444 1447 1446 # N B N
4456 2 1444 1447 1448 # N B N
4457 1 1447 1444 1561 # B N B
4458 2 1444 1561 1562 # N B N
4459 2 1444 1561 1566 # N B N
4460 1 1445 1450 1449 # B N B
4461 1 1445 1450 1451 # B N B
4462 1 1445 1446 1447 # B N B
4463 2 1446 1445 1450 # N B N
4464 2 1446 1447 1448 # N B N
4465 1 1447 1448 1451 # B N B
4466 1 1447 1448 1565 # B N B
4467 2 1448 1451 1450 # N B N
4468 2 1448 1451 1452 # N B N
4469 1 1451 1448 1565 # B N B
4470 2 1448 1565 1566 # N B N
4471 2 1448 1565 1570 # N B N
4472 1 1449 1454 1453 # B N B
4473 1 1449 1454 1455 # B N B
4474 1 1449 1450 1451 # B N B
4475 2 1450 1449 1454 # N B N
4476 2 1450 1451 1452 # N B N
4477 1 1451 1452 1455 # B N B
4478 1 1451 1452 1569 # B N B
4479 2 1452 1455 1454 # N B N
4480 2 1452 1455 1456 # N B N
4481 1 1455 1452 1569 # B N B
4482 2 1452 1569 1570 # N B N
4483 2 1452 1569 1574 # N B N
4484 1 1453 1458 1457 # B N B
4485 1 1453 1458 1459 # B N B
4486 1 1453 1454 1455 # B N B
4487 2 1454 1453 1458 # N B N
4488 2 1454 1455 1456 # N B N
4489 1 1455 1456 1459 # B N B
4490 1 1455 1456 1573 # B N B
4491 2 1456 1459 1458 # N B N
4492 2 1456 1459 1460 # N B N
4493 1 1459 1456 1573 # B N B
4494 2 1456 1573 1574 # N B N
4495 2 1456 1573 1578 # N B N
4496 1 1457 1462 1461 # B N B
4497 1 1457 1462 1463 # B N B
4498 1 1457 1458 1459 # B N B
4499 2 1458 1457 1462 # N B N
4500 2 1458 1459 1460 # N B N
4501 1 1459 1460 1463 # B N B
4502 1 1459 1460 1577 # B N B
4503 2 1460 1463 1462 # N B N
4504 2 1460 1463 1464 # N B N
4505 1 1463 1460 1577 # B N B
4506 2 1460 1577 1578 # N B N
4507 2 1460 1577 1582 # N B N
4508 1 1461 1466 1465 # B N B
4509 1 1461 1466 1467 # B N B
4510 1 1461 1462 1463 # B N B
4511 2 1462 1461 1466 # N B N
4512 2 1462 1463 1464 # N B N
4513 1 1463 1464 1467 # B N B
4514 1 1463 1464 1581 # B N B
4515 2 1464 1467 1466 # N B N
4516 2 1464 1467 1468 # N B N
4517 1 1467 1464 1581 # B N B
4518 2 1464 1581 1582 # N B N
4519 2 1464 1581 1586 # N B N
4520 1 1465 1470 1469 # B N B
4521 1 1465 1470 1471 # B N B
4522 1 1465 1466 1467 # B N B
4523 2 1466 1465 1470 # N B N
4524 2 1466 1467 1468 # N B N
4525 1 1467 1468 1471 # B N B
4526 1 1467 1468 1585 # B N B
4527 2 1468 1471 1470 # N B N
4528 2 1468 1471 1472 # N B N
4529 1 1471 1468 1585 # B N B
4530 2 1468 1585 1586 # N B N
4531 2 1468 1585 1590 # N B N
4532 1 1469 1474 1473 # B N B
4533 1 1469 1474 1475 # B N B
4534 1 1469 1470 1471 # B N B
4535 2 1470 1469 1474 # N B N
4536 2 1470 1471 1472 # N B N
4537 1 1471 1472 1475 # B N B
4538 1 1471 1472 1589 # B N B
4539 2 1472 1475 1474 # N B N
4540 2 1472 1475 1476 # N B N
4541 1 1475 1472 1589 # B N B
4542 2 1472 1589 1590 # N B N
4543 2 1472 1589 1594 # N B N
4544 1 1473 1478 1477 # B N B
4545 1 1473 1478 1479 # B N B
4546 1 1473 1474 1475 # B N B
4547 2 1474 1473 1478 # N B N
4548 2 1474 1475 1476 # N B N
4549 1 1475 1476 1479 # B N B
4550 1 1475 1476 1593 # B N B
4551 2 1476 1479 1478 # N B N
4552 2 1476 1479 1480 # N B N
4553 1 1479 1476 1593 # B N B
4554 2 1476 1593 1594 # N B N
4555 2 1476 1593 1598 # N B N
4556 1 1477 1482 1481 # B N B
4557 1 1477 1482 1483 # B N B
4558 1 1477 1478 1479 # B N B
4559 2 1478 1477 1482 # N B N
4560 2 1478 1479 1480 # N B N
4561 1 1479 1480 1483 # B N B
4562 1 1479 1480 1597 # B N B
4563 2 1480 1483 1482 # N B N
4564 2 1480 1483 1484 # N B N
4565 1 1483 1480 1597 # B N B
4566 2 1480 1597 1598 # N B N
4567 2 1480 1597 1602 # N B N
4568 1 1481 1486 1485 # B N B
4569 1 1481 1486 1487 # B N B
4570 1 1481 1482 1483 # B N B
4571 2 1482 1481 1486 # N B N
4572 2 1482 1483 1484 # N B N
4573 1 1483 1484 1487 # B N B
4574 1 1483 1484 1601 # B N B
4575 2 1484 1487 1486 # N B N
4576 2 1484 1487 1488 # N B N
4577 1 1487 1484 1601 # B N B
4578 2 1484 1601 1602 # N B N
4579 2 1484 1601 1606 # N B N
4580 1 1485 1490 1489 # B N B
4581 1 1485 1490 1491 # B N B
4582 1 1485 1486 1487 # B N B
4583 2 1486 1485 1490 # N B N
4584 2 1486 1487 1488 # N B N
4585 1 1487 1488 1491 # B N B
4586 1 1487 1488 1605 # B N B
4587 2 1488 1491 1490 # N B N
4588 2 1488 1491 1492 # N B N
4589 1 1491 1488 1605 # B N B
4590 2 1488 1605 1606 # N B N
4591 2 1488 1605 1610 # N B N
4592 1 1489 1494 1493 # B N B
4593 1 1489 1494 1495 # B N B
4594 1 1489 1490 1491 # B N B
4595 2 1490 1489 1494 # N B N
4596 2 1490 1491 1492 # N B N
4597 1 1491 1492 1495 # B N B
4598 1 1491 1492 1609 # B N B
4599 2 1492 1495 1494 # N B N
4600 2 1492 1495 1496 # N B N
4601 1 1495 1492 1609 # B N B
4602 2 1492 1609 1610 # N B N
4603 2 1492 1609 1614 # N B N
4604 1 1493 1498 1497 # B N B
4605 1 1493 1498 1499 # B N B
4606 1 1493 1494 1495 # B N B
4607 2 1494 1493 1498 # N B N
4608 2 1494 1495 1496 # N B N
4609 1 1495 1496 1499 # B N B
4610 1 1495 1496 1613 # B N B
4611 2 1496 1499 1498 # N B N
4612 2 1496 1499 1500 # N B N
4613 1 1499 1496 1613 # B N B
4614 2 1496 1613 1614 # N B N
4615 2 1496 1613 1618 # N B N
4616 1 1497 1502 1501 # B N B
4617 1 1497 1502 1503 # B N B
4618 1 1497 1498 1499 # B N B
4619 2 1498 1497 1502 # N B N
4620 2 1498 1499 1500 # N B N
4621 1 1499 1500 1503 # B N B
4622 1 1499 1500 1617 # B N B
4623 2 1500 1503 1502 # N B N
4624 2 1500 1503 1504 # N B N
4625 1 1503 1500 1617 # B N B
4626 2 1500 1617 1618 # N B N
4627 2 1500 1617 1622 # N B N
4628 1 1501 1506 1505 # B N B
4629 1 1501 1506 1507 # B N B
4630 1 1501 1502 1503 # B N B
4631 2 1502 1501 1506 # N B N
4632 2 1502 1503 1504 # N B N
4633 1 1503 1504 1507 # B N B
4634 1 1503 1504 1621 # B N B
4635 2 1504 1507 1506 # N B N
4636 2 1504 1507 1508 # N B N
4637 1 1507 1504 1621 # B N B
4638 2 1504 1621 1622 # N B N
4639 2 1504 1621 1626 # N B N
4640 1 1505 1510 1509 # B N B
4641 1 1505 1510 1511 # B N B
4642 1 1505 1506 1507 # B N B
4643 2 1506 1505 1510 # N B N
4644 2 1506 1507 1508 # N B N
4645 1 1507 1508 1511 # B N B
4646 1 1507 1508 1625 # B N B
4647 2 1508 1511 1510 # N B N
4648 2 1508 1511 1512 # N B N
4649 1 1511 1508 1625 # B N B
4650 2 1508 1625 1626 # N B N
4651 2 1508 1625 1630 # N B N
4652 1 1509 1514 1513 # B N B
4653 1 1509 1514 1515 # B N B
4654 1 1509 1510 1511 # B N B
4655 2 1510 1509 1514 # N B N
4656 2 1510 1511 1512 # N B N
4657 1 1511 1512 1515 # B N B
4658 1 1511 1512 1629 # B N B
4659 2 1512 1515 1514 # N B N
4660 2 1512 1515 1516 # N B N
4661 1 1515 1512 1629 # B N B
4662 2 1512 1629 1630 # N B N
4663 2 1512 1629 1634 # N B N
4664 1 1513 1518 1517 # B N B
4665 1 1513 1518 1519 # B N B
4666 1 1513 1514 1515 # B N B
4667 2 1514 1513 1518 # N B N
4668 2 1514 1515 1516 # N B N
4669 1 1515 1516 1519 # B N B
4670 1 1515 1516 1633 # B N B
4671 2 1516 1519 1518 # N B N
4672 2 1516 1519 1520 # N B N
4673 1 1519 1516 1633 # B N B
4674 2 1516 1633 1634 # N B N
4675 2 1516 1633 1638 # N B N
4676 1 1517 1522 1521 # B N B
4677 1 1517 1522 1523 # B N B
4678 1 1517 1518 1519 # B N B
4679 2 1518 1517 1522 # N B N
4680 2 1518 1519 1520 # N B N
4681 1 1519 1520 1523 # B N B
4682 1 1519 1520 1637 # B N B
4683 2 1520 1523 1522 # N B N
4684 2 1520 1523 1524 # N B N
4685 1 1523 1520 1637 # B N B
4686 2 1520 1637 1638 # N B N
4687 2 1520 1637 1642 # N B N
4688 1 1521 1526 1525 # B N B
4689 1 1521 1526 1527 # B N B
4690 1 1521 1522 1523 # B N B
4691 2 1522 1521 1526 # N B N
4692 2 1522 1523 1524 # N B N
4693 1 1523 1524 1527 # B N B
4694 1 1523 1524 1641 # B N B
4695 2 1524 1527 1526 # N B N
4696 2 1524 1527 1528 # N B N
4697 1 1527 1524 1641 # B N B
4698 2 1524 1641 1642 # N B N
4699 2 1524 1641 1646 # N B N
4700 1 1525 1530 1529 # B N B
4701 1 1525 1530 1531 # B N B
4702 1 1525 1526 1527 # B N B
4703 2 1526 1525 1530 # N B N
4704 2 1526 1527 1528 # N B N
4705 1 1527 1528 1531 # B N B
4706 1 1527 1528 1645 # B N B
4707 2 1528 1531 1530 # N B N
4708 2 1528 1531 1532 # N B N
4709 1 1531 1528 1645 # B N B
4710 2 1528 1645 1646 # N B N
4711 2 1528 1645 1650 # N B N
4712 1 1529 1534 1533 # B N B
4713 1 1529 1534 1535 # B N B
4714 1 1529 1530 1531 # B N B
4715 2 1530 1529 1534 # N B N
4716 2 1530 1531 1532 # N B N
4717 1 1531 1532 1535 # B N B
4718 1 1531 1532 1649 # B N B
4719 2 1532 1535 1534 # N B N
4720 2 1532 1535 1536 # N B N
4721 1 1535 1532 1649 # B N B
4722 2 1532 1649 1650 # N B N
4723 2 1532 1649 1654 # N B N
4724 1 1533 1538 1537 # B N B
4725 1 1533 1538 1539 # B N B
4726 1 1533 1534 1535 # B N B
4727 2 1534 1533 1538 # N B N
4728 2 1534 1535 1536 # N B N
4729 1 1535 1536 1539 # B N B
4730 1 1535 1536 1653 # B N B
4731 2 1536 1539 1538 # N B N
4732 2 1536 1539 1540 # N B N
4733 1 1539 1536 1653 # B N B
4734 2 1536 1653 1654 # N B N
4735 2 1536 1653 1658 # N B N
4736 1 1537 1542 1541 # B N B
4737 1 1537 1542 1543 # B N B
4738 1 1537 1538 1539 # B N B
4739 2 1538 1537 1542 # N B N
4740 2 1538 1539 1540 # N B N
4741 1 1539 1540 1543 # B N B
4742 1 1539 1540 1657 # B N B
4743 2 1540 1543 1542 # N B N
4744 2 1540 1543 1544 # N B N
4745 1 1543 1540 1657 # B N B
4746 2 1540 1657 1658 # N B N
4747 2 1540 1657 1662 # N B N
4748 1 1541 1546 1545 # B N B
4749 1 1541 1546 1547 # B N B
4750 1 1541 1542 1543 # B N B
4751 2 1542 1541 1546 # N B N
4752 2 1542 1543 1544 # N B N
4753 1 1543 1544 1547 # B N B
4754 1 1543 1544 1661 # B N B
4755 2 1544 1547 1546 # N B N
4756 2 1544 1547 1548 # N B N
4757 1 1547 1544 1661 # B N B
4758 2 1544 1661 1662 # N B N
4759 2 1544 1661 1666 # N B N
4760 1 1545 1550 1549 # B N B
4761 1 1545 1550 1551 # B N B
4762 1 1545 1546 1547 # B N B
4763 2 1546 1545 1550 # N B N
4764 2 1546 1547 1548 # N B N
4765 1 1547 1548 1551 # B N B
4766 1 1547 1548 1665 # B N B
4767 2 1548 1551 1550 # N B N
4768 2 1548 1551 1552 # N B N
4769 1 1551 1548 1665 # B N B
4770 2 1548 1665 1666 # N B N
4771 2 1548 1665 1670 # N B N
4772 1 1549 1554 1553 # B N B
4773 1 1549 1554 1555 # B N B
4774 1 1549 1550 1551 # B N B
4775 2 1550 1549 1554 # N B N
4776 2 1550 1551 1552 # N B N
4777 1 1551 1552 1555 # B N B
4778 1 1551 1552 1669 # B N B
4779 2 1552 1555 1554 # N B N
4780 2 1552 1555 1556 # N B N
4781 1 1555 1552 1669 # B N B
4782 2 1552 1669 1670 # N B N
4783 2 1552 1669 1674 # N B N
4784 1 1553 1558 1557 # B N B
4785 1 1553 1558 1559 # B N B
4786 1 1553 1554 1555 # B N B
4787 2 1554 1553 1558 # N B N
4788 2 1554 1555 1556 # N B N
4789 1 1555 1556 1559 # B N B
4790 1 1555 1556 1673 # B N B
4791 2 1556 1559 1558 # N B N
4792 2 1556 1559 1560 # N B N
4793 1 1559 1556 1673 # B N B
4794 2 1556 1673 1674 # N B N
4795 2 1556 1673 1678 # N B N
4796 1 1557 1558 1559 # B N B
4797 2 1558 1559 1560 # N B N
4798 1 1559 1560 1677 # B N B
4799 2 1560 1677 1678 # N B N
4800 2 1560 1677 1562 # N B N
4801 1 1561 1562 1563 # B N B
4802 1 1561 1562 1677 # B N B
4803 2 1562 1561 1566 # N B N
4804 1 1561 1566 1565 # B N B
4805 1 1561 1566 1567 # B N B
4806 2 1562 1563 1564 # N B N
4807 2 1562 1563 1680 # N B N
4808 1 1563 1562 1677 # B N B
4809 2 1562 1677 1678 # N B N
4810 1 1563 1564 1567 # B N B
4811 1 1563 1564 1681 # B N B
4812 2 1564 1563 1680 # N B N
4813 1 1563 1680 1679 # B N B
4814 1 1563 1680 1797 # B N B
4815 2 1564 1567 1566 # N B N
4816 2 1564 1567 1568 # N B N
4817 1 1567 1564 1681 # B N B
4818 2 1564 1681 1682 # N B N
4819 2 1564 1681 1686 # N B N
4820 1 1565 1566 1567 # B N B
4821 2 1566 1565 1570 # N B N
4822 1 1565 1570 1569 # B N B
4823 1 1565 1570 1571 # B N B
4824 2 1566 1567 1568 # N B N
4825 1 1567 1568 1571 # B N B
4826 1 1567 1568 1685 # B N B
4827 2 1568 1571 1570 # N B N
4828 2 1568 1571 1572 # N B N
4829 1 1571 1568 1685 # B N B
4830 2 1568 1685 1686 # N B N
4831 2 1568 1685 1690 # N B N
4832 1 1569 1570 1571 # B N B
4833 2 1570 1569 1574 # N B N
4834 1 1569 1574 1573 # B N B
4835 1 1569 1574 1575 # B N B
4836 2 1570 1571 1572 # N B N
4837 1 1571 1572 1575 # B N B
4838 1 1571 1572 1689 # B N B
4839 2 1572 1575 1574 # N B N
4840 2 1572 1575 1576 # N B N
4841 1 1575 1572 1689 # B N B
4842 2 1572 1689 1690 # N B N
4843 2 1572 1689 1694 # N B N
4844 1 1573 1574 1575 # B N B
4845 2 1574 1573 1578 # N B N
4846 1 1573 1578 1577 # B N B
4847 1 1573 1578 1579 # B N B
4848 2 1574 1575 1576 # N B N
4849 1 1575 1576 1579 # B N B
4850 1 1575 1576 1693 # B N B
4851 2 1576 1579 1578 # N B N
4852 2 1576 1579 1580 # N B N
4853 1 1579 1576 1693 # B N B
4854 2 1576 1693 1694 # N B N
4855 2 1576 1693 1698 # N B N
4856 1 1577 1578 1579 # B N B
4857 2 1578 1577 1582 # N B N
4858 1 1577 1582 1581 # B N B
4859 1 1577 1582 1583 # B N B
4860 2 1578 1579 1580 # N B N
4861 1 1579 1580 1583 # B N B
4862 1 1579 1580 1697 # B N B
4863 2 1580 1583 1582 # N B N
4864 2 1580 1583 1584 # N B N
4865 1 1583 1580 1697 # B N B
4866 2 1580 1697 1698 # N B N
4867 2 1580 1697 1702 # N B N
4868 1 1581 1582 1583 # B N B
4869 2 1582 1581 1586 # N B N
4870 1 1581 1586 1585 # B N B
4871 1 1581 1586 1587 # B N B
4872 2 1582 1583 1584 # N B N
4873 1 1583 1584 1587 # B N B
4874 1 1583 1584 1701 # B N B
4875 2 1584 1587 1586 # N B N
4876 2 1584 1587 1588 # N B N
4877 1 1587 1584 1701 # B N B
4878 2 1584 1701 1702 # N B N
4879 2 1584 1701 1706 # N B N
4880 1 1585 1586 1587 # B N B
4881 2 1586 1585 1590 # N B N
4882 1 1585 1590 1589 # B N B
4883 1 1585 1590 1591 # B N B
4884 2 1586 1587 1588 # N B N
4885 1 1587 1588 1591 # B N B
4886 1 1587 1588 1705 # B N B
4887 2 1588 1591 1590 # N B N
4888 2 1588 1591 1592 # N B N
4889 1 1591 1588 1705 # B N B
4890 2 1588 1705 1706 # N B N
4891 2 1588 1705 1710 # N B N
4892 1 1589 1590 1591 # B N B
4893 2 1590 1589 1594 # N B N
4894 1 1589 1594 1593 # B N B
4895 1 1589 1594 1595 # B N B
4896 2 1590 1591 1592 # N B N
4897 1 1591 1592 1595 # B N B
4898 1 1591 1592 1709 # B N B
4899 2 1592 1595 1594 # N B N
4900 2 1592 1595 1596 # N B N
4901 1 1595 1592 1709 # B N B
4902 2 1592 1709 1710 # N B N
4903 2 1592 1709 1714 # N B N
4904 1 1593 1594 1595 # B N B
4905 2 1594 1593 1598 # N B N
4906 1 1593 1598 1597 # B N B
4907 1 1593 1598 1599 # B N B
4908 2 1594 1595 1596 # N B N
4909 1 1595 1596 1599 # B N B
4910 1 1595 1596 1713 # B N B
4911 2 1596 1599 1598 # N B N
4912 2 1596 1599 1600 # N B N
4913 1 1599 1596 1713 # B N B
4914 2 1596 1713 1714 # N B N
4915 2 1596 1713 1718 # N B N
4916 1 1597 1598 1599 # B N B
4917 2 1598 1597 1602 # N B N
4918 1 1597 1602 1601 # B N B
4919 1 1597 1602 1603 # B N B
4920 2 1598 1599 1600 # N B N
4921 1 1599 1600 1603 # B N B
4922 1 1599 1600 1717 # B N B
4923 2 1600 1603 1602 # N B N
4924 2 1600 1603 1604 # N B N
4925 1 1603 1600 1717 # B N B
4926 2 1600 1717 1718 # N B N
4927 2 1600 1717 1722 # N B N
4928 1 1601 1602 1603 # B N B
4929 2 1602 1601 1606 # N B N
4930 1 1601 1606 1605 # B N B
4931 1 1601 1606 1607 # B N B
4932 2 1602 1603 1604 # N B N
4933 1 1603 1604 1607 # B N B
4934 1 1603 1604 1721 # B N B
4935 2 1604 1607 1606 # N B N
4936 2 1604 1607 1608 # N B N
4937 1 1607 1604 1721 # B N B
4938 2 1604 1721 1722 # N B N
4939 2 1604 1721 1726 # N B N
4940 1 1605 1606 1607 # B N B
4941 2 1606 1605 1610 # N B N
4942 1 1605 1610 1609 # B N B
4943 1 1605 1610 1611 # B N B
4944 2 1606 1607 1608 # N B N
4945 1 1607 1608 1611 # B N B
4946 1 1607 1608 1725 # B N B
4947 2 1608 1611 1610 # N B N
4948 2 1608 1611 1612 # N B N
4949 1 1611 1608 1725 # B N B
4950 2 1608 1725 1726 # N B N
4951 2 1608 1725 1730 # N B N
4952 1 1609 1610 1611 # B N B
4953 2 1610 1609 1614 # N B N
4954 1 1609 1614 1613 # B N B
4955 1 1609 1614 1615 # B N B
4956 2 1610 1611 1612 # N B N
4957 1 1611 1612 1615 # B N B
4958 1 1611 1612 1729 # B N B
4959 2 1612 1615 1614 # N B N
4960 2 1612 1615 1616 # N B N
4961 1 1615 1612 1729 # B N B
4962 2 1612 1729 1730 # N B N
4963 2 1612 1729 1734 # N B N
4964 1 1613 1614 1615 # B N B
4965 2 1614 1613 1618 # N B N
4966 1 1613 1618 1617 # B N B
4967 1 1613 1618 1619 # B N B
4968 2 1614 1615 1616 # N B N
4969 1 1615 1616 1619 # B N B
4970 1 1615 1616 1733 # B N B
4971 2 1616 1619 1618 # N B N
4972 2 1616 1619 1620 # N B N
4973 1 1619 1616 1733 # B N B
4974 2 1616 1733 1734 # N B N
4975 2 1616 1733 1738 # N B N
4976 1 1617 1618 1619 # B N B
4977 2 1618 1617 1622 # N B N
4978 1 1617 1622 1621 # B N B
4979 1 1617 1622 1623 # B N B
4980 2 1618 1619 1620 # N B N
4981 1 1619 1620 1623 # B N B
4982 1 1619 1620 1737 # B N B
4983 2 1620 1623 1622 # N B N
4984 2 1620 1623 1624 # N B N
4985 1 1623 1620 1737 # B N B
4986 2 1620 1737 1738 # N B N
4987 2 1620 1737 1742 # N B N
4988 1 1621 1622 1623 # B N B
4989 2 1622 1621 1626 # N B N
4990 1 1621 1626 1625 # B N B
4991 1 1621 1626 1627 # B N B
4992 2 1622 1623 1624 # N B N
4993 1 1623 1624 1627 # B N B
4994 1 1623 1624 1741 # B N B
4995 2 1624 1627 1626 # N B N
4996 2 1624 1627 1628 # N B N
4997 1 1627 1624 1741 # B N B
4998 2 1624 1741 1742 # N B N
4999 2 1624 1741 1746 # N B N
5000 1 1625 1626 1627 # B N B
5001 2 1626 1625 1630 # N B N
5002 1 1625 1630 1629 # B N B
5003 1 1625 1630 1631 # B N B
5004 2 1626 1627 1628 # N B N
5005 1 1627 1628 1631 # B N B
5006 1 1627 1628 1745 # B N B
5007 2 1628 1631 1630 # N B N
5008 2 1628 1631 1632 # N B N
5009 1 1631 1628 1745 # B N B
5010 2 1628 1745 1746 # N B N
5011 2 1628 1745 1750 # N B N
5012 1 1629 1630 1631 # B N B
5013 2 1630 1629 1634 # N B N
5014 1 1629 1634 1633 # B N B
5015 1 1629 1634 1635 # B N B
5016 2 1630 1631 1632 # N B N
5017 1 1631 1632 1635 # B N B
5018 1 1631 1632 1749 # B N B
5019 2 1632 1635 1634 # N B N
5020 2 1632 1635 1636 # N B N
5021 1 1635 1632 1749 # B N B
5022 2 1632 1749 1750 # N B N
5023 2 1632 1749 1754 # N B N
5024 1 1633 1634 1635 # B N B
5025 2 1634 1633 1638 # N B N
5026 1 1633 1638 1637 # B N B
5027 1 1633 1638 1639 # B N B
5028 2 1634 1635 1636 # N B N
5029 1 1635 1636 1639 # B N B
5030 1 1635 1636 1753 # B N B
5031 2 1636 1639 1638 # N B N
5032 2 1636 1639 1640 # N B N
5033 1 1639 1636 1753 # B N B
5034 2 1636 1753 1754 # N B N
5035 2 1636 1753 1758 # N B N
5036 1 1637 1638 1639 # B N B
5037 2 1638 1637 1642 # N B N
5038 1 1637 1642 1641 # B N B
5039 1 1637 1642 1643 # B N B
5040 2 1638 1639 1640 # N B N
5041 1 1639 1640 1643 # B N B
5042 1 1639 1640 1757 # B N B
5043 2 1640 1643 1642 # N B N
5044 2 1640 1643 1644 # N B N
5045 1 1643 1640 1757 # B N B
5046 2 1640 1757 1758 # N B N
5047 2 1640 1757 1762 # N B N
5048 1 1641 1642 1643 # B N B
5049 2 1642 1641 1646 # N B N
5050 1 1641 1646 1645 # B N B
5051 1 1641 1646 1647 # B N B
5052 2 1642 1643 1644 # N B N
5053 1 1643 1644 1647 # B N B
5054 1 1643 1644 1761 # B N B
5055 2 1644 1647 1646 # N B N
5056 2 1644 1647 1648 # N B N
5057 1 1647 1644 1761 # B N B
5058 2 1644 1761 1762 # N B N
5059 2 1644 1761 1766 # N B N
5060 1 1645 1646 1647 # B N B
5061 2 1646 1645 1650 # N B N
5062 1 1645 1650 1649 # B N B
5063 1 1645 1650 1651 # B N B
5064 2 1646 1647 1648 # N B N
5065 1 1647 1648 1651 # B N B
5066 1 1647 1648 1765 # B N B
5067 2 1648 1651 1650 # N B N
5068 2 1648 1651 1652 # N B N
5069 1 1651 1648 1765 # B N B
5070 2 1648 1765 1766 # N B N
5071 2 1648 1765 1770 # N B N
5072 1 1649 1650 1651 # B N B
5073 2 1650 1649 1654 # N B N
5074 1 1649 1654 1653 # B N B
5075 1 1649 1654 1655 # B N B
5076 2 1650 1651 1652 # N B N
5077 1 1651 1652 1655 # B N B
5078 1 1651 1652 1769 # B N B
5079 2 1652 1655 1654 # N B N
5080 2 1652 1655 1656 # N B N
5081 1 1655 1652 1769 # B N B
5082 2 1652 1769 1770 # N B N
5083 2 1652 1769 1774 # N B N
5084 1 1653 1654 1655 # B N B
5085 2 1654 1653 1658 # N B N
5086 1 1653 1658 1657 # B N B
5087 1 1653 1658 1659 # B N B
5088 2 1654 1655 1656 # N B N
5089 1 1655 1656 1659 # B N B
5090 1 1655 1656 1773 # B N B
5091 2 1656 1659 1658 # N B N
5092 2 1656 1659 1660 # N B N
5093 1 1659 1656 1773 # B N B
5094 2 1656 1773 1774 # N B N
5095 2 1656 1773 1778 # N B N
5096 1 1657 1658 1659 # B N B
5097 2 1658 1657 1662 # N B N
5098 1 1657 1662 1661 # B N B
5099 1 1657 1662 1663 # B N B
5100 2 1658 1659 1660 # N B N
5101 1 1659 1660 1663 # B N B
5102 1 1659 1660 1777 # B N B
5103 2 1660 1663 1662 # N B N
5104 2 1660 1663 1664 # N B N
5105 1 1663 1660 1777 # B N B
5106 2 1660 1777 1778 # N B N
5107 2 1660 1777 1782 # N B N
5108 1 1661 1662 1663 # B N B
5109 2 1662 1661 1666 # N B N
5110 1 1661 1666 1665 # B N B
5111 1 1661 1666 1667 # B N B
5112 2 1662 1663 1664 # N B N
5113 1 1663 1664 1667 # B N B
5114 1 1663 1664 1781 # B N B
5115 2 1664 1667 1666 # N B N
5116 2 1664 1667 1668 # N B N
5117 1 1667 1664 1781 # B N B
5118 2 1664 1781 1782 # N B N
5119 2 1664 1781 1786 # N B N
5120 1 1665 1666 1667 # B N B
5121 2 1666 1665 1670 # N B N
5122 1 1665 1670 1669 # B N B
5123 1 1665 1670 1671 # B N B
5124 2 1666 1667 1668 # N B N
5125 1 1667 1668 1671 # B N B
5126 1 1667 1668 1785 # B N B
5127 2 1668 1671 1670 # N B N
5128 2 1668 1671 1672 # N B N
5129 1 1671 1668 1785 # B N B
5130 2 1668 1785 1786 # N B N
5131 2 1668 1785 1790 # N B N
5132 1 1669 1670 1671 # B N B
5133 2 1670 1669 1674 # N B N
5134 1 1669 1674 1673 # B N B
5135 1 1669 1674 1675 # B N B
5136 2 1670 1671 1672 # N B N
5137 1 1671 1672 1675 # B N B
5138 1 1671 1672 1789 # B N B
5139 2 1672 1675 1674 # N B N
5140 2 1672 1675 1676 # N B N
5141 1 1675 1672 1789 # B N B
5142 2 1672 1789 1790 # N B N
5143 2 1672 1789 1794 # N B N
5144 1 1673 1674 1675 # B N B
5145 2 1674 1673 1678 # N B N
5146 1 1673 1678 1677 # B N B
5147 1 1673 1678 1679 # B N B
5148 2 1674 1675 1676 # N B N
5149 1 1675 1676 1679 # B N B
5150 1 1675 1676 1793 # B N B
5151 2 1676 1679 1678 # N B N
5152 2 1676 1679 1680 # N B N
5153 1 1679 1676 1793 # B N B
5154 2 1676 1793 1794 # N B N
5155 2 1676 1793 1798 # N B N
5156 1 1677 1678 1679 # B N B
5157 2 1678 1679 1680 # N B N
5158 1 1679 1680 1797 # B N B
5159 2 1680 1797 1798 # N B N
5160 2 1680 1797 1682 # N B N
5161 1 1681 1682 1683 # B N B
5162 1 1681 1682 1797 # B N B
5163 2 1682 1681 1686 # N B N
5164 1 1681 1686 1685 # B N B
5165 1 1681 1686 1687 # B N B
5166 2 1682 1683 1684 # N B N
5167 2 1682 1683 1800 # N B N
5168 1 1683 1682 1797 # B N B
5169 2 1682 1797 1798 # N B N
5170 1 1683 1684 1687 # B N B
5171 2 1684 1683 1800 # N B N
5172 1 1683 1800 1799 # B N B
5173 2 1684 1687 1686 # N B N
5174 2 1684 1687 1688 # N B N
5175 1 1685 1686 1687 # B N B
5176 2 1686 1685 1690 # N B N
5177 1 1685 1690 1689 # B N B
5178 1 1685 1690 1691 # B N B
5179 2 1686 1687 1688 # N B N
5180 1 1687 1688 1691 # B N B
5181 2 1688 1691 1690 # N B N
5182 2 1688 1691 1692 # N B N
5183 1 1689 1690 1691 # B N B
5184 2 1690 1689 1694 # N B N
5185 1 1689 1694 1693 # B N B
5186 1 1689 1694 1695 # B N B
5187 2 1690 1691 1692 # N B N
5188 1 1691 1692 1695 # B N B
5189 2 1692 1695 1694 # N B N
5190 2 1692 1695 1696 # N B N
5191 1 1693 1694 1695 # B N B
5192 2 1694 1693 1698 # N B N
5193 1 1693 1698 1697 # B N B
5194 1 1693 1698 1699 # B N B
5195 2 1694 1695 1696 # N B N
5196 1 1695 1696 1699 # B N B
5197 2 1696 1699 1698 # N B N
5198 2 1696 1699 1700 # N B N
5199 1 1697 1698 1699 # B N B
5200 2 1698 1697 1702 # N B N
5201 1 1697 1702 1701 # B N B
5202 1 1697 1702 1703 # B N B
5203 2 1698 1699 1700 # N B N
5204 1 1699 1700 1703 # B N B
5205 2 1700 1703 1702 # N B N
5206 2 1700 1703 1704 # N B N
5207 1 1701 1702 1703 # B N B
5208 2 1702 1701 1706 # N B N
5209 1 1701 1706 1705 # B N B
5210 1 1701 1706 1707 # B N B
5211 2 1702 1703 1704 # N B N
5212 1 1703 1704 1707 # B N B
5213 2 1704 1707 1706 # N B N
5214 2 1704 1707 1708 # N B N
5215 1 1705 1706 1707 # B N B
5216 2 1706 1705 1710 # N B N
5217 1 1705 1710 1709 # B N B
5218 1 1705 1710 1711 # B N B
5219 2 1706 1707 1708 # N B N
5220 1 1707 1708 1711 # B N B
5221 2 1708 1711 1710 # N B N
5222 2 1708 1711 1712 # N B N
5223 1 1709 1710 1711 # B N B
5224 2 1710 1709 1714 # N B N
5225 1 1709 1714 1713 # B N B
5226 1 1709 1714 1715 # B N B
5227 2 1710 1711 1712 # N B N
5228 1 1711 1712 1715 # B N B
5229 2 1712 1715 1714 # N B N
5230 2 1712 1715 1716 # N B N
5231 1 1713 1714 1715 # B N B
5232 2 1714 1713 1718 # N B N
5233 1 1713 1718 1717 # B N B
5234 1 1713 1718 1719 # B N B
5235 2 1714 1715 1716 # N B N
5236 1 1715 1716 1719 # B N B
5237 2 1716 1719 1718 # N B N
5238 2 1716 1719 1720 # N B N
5239 1 1717 1718 1719 # B N B
5240 2 1718 1717 1722 # N B N
5241 1 1717 1722 1721 # B N B
5242 1 1717 1722 1723 # B N B
5243 2 1718 1719 1720 # N B N
5244 1 1719 1720 1723 # B N B
5245 2 1720 1723 1722 # N B N
5246 2 1720 1723 1724 # N B N
5247 1 1721 1722 1723 # B N B
5248 2 1722 1721 1726 # N B N
5249 1 1721 1726 1725 # B N B
5250 1 1721 1726 1727 # B N B
5251 2 1722 1723 1724 # N B N
5252 1 1723 1724 1727 # B N B
5253 2 1724 1727 1726 # N B N
5254 2 1724 1727 1728 # N B N
5255 1 1725 1726 1727 # B N B
5256 2 1726 1725 1730 # N B N
5257 1 1725 1730 1729 # B N B
5258 1 1725 1730 1731 # B N B
5259 2 1726 1727 1728 # N B N
5260 1 1727 1728 1731 # B N B
5261 2 1728 1731 1730 # N B N
5262 2 1728 1731 1732 # N B N
5263 1 1729 1730 1731 # B N B
5264 2 1730 1729 1734 # N B N
5265 1 1729 1734 1733 # B N B
5266 1 1729 1734 1735 # B N B
5267 2 1730 1731 1732 # N B N
5268 1 1731 1732 1735 # B N B
5269 2 1732 1735 1734 # N B N
5270 2 1732 1735 1736 # N B N
5271 1 1733 1734 1735 # B N B
5272 2 1734 1733 1738 # N B N
5273 1 1733 1738 1737 # B N B
5274 1 1733 1738 1739 # B N B
5275 2 1734 1735 1736 # N B N
5276 1 1735 1736 1739 # B N B
5277 2 1736 1739 1738 # N B N
5278 2 1736 1739 1740 # N B N
5279 1 1737 1738 1739 # B N B
5280 2 1738 1737 1742 # N B N
5281 1 1737 1742 1741 # B N B
5282 1 1737 1742 1743 # B N B
5283 2 1738 1739 1740 # N B N
5284 1 1739 1740 1743 # B N B
5285 2 1740 1743 1742 # N B N
5286 2 1740 1743 1744 # N B N
5287 1 1741 1742 1743 # B N B
5288 2 1742 1741 1746 # N B N
5289 1 1741 1746 1745 # B N B
5290 1 1741 1746 1747 # B N B
5291 2 1742 1743 1744 # N B N
5292 1 1743 1744 1747 # B N B
5293 2 1744 1747 1746 # N B N
5294 2 1744 1747 1748 # N B N
5295 1 1745 1746 1747 # B N B
5296 2 1746 1745 1750 # N B N
5297 1 1745 1750 1749 # B N B
5298 1 1745 1750 1751 # B N B
5299 2 1746 1747 1748 # N B N
5300 1 1747 1748 1751 # B N B
5301 2 1748 1751 1750 # N B N
5302 2 1748 1751 1752 # N B N
5303 1 1749 1750 1751 # B N B
5304 2 1750 1749 1754 # N B N
5305 1 1749 1754 1753 # B N B
5306 1 1749 1754 1755 # B N B
5307 2 1750 1751 1752 # N B N
5308 1 1751 1752 1755 # B N B
5309 2 1752 1755 1754 # N B N
5310 2 1752 1755 1756 # N B N
5311 1 1753 1754 1755 # B N B
5312 2 1754 1753 1758 # N B N
5313 1 1753 1758 1757 # B N B
5314 1 1753 1758 1759 # B N B
5315 2 1754 1755 1756 # N B N
5316 1 1755 1756 1759 # B N B
5317 2 1756 1759 1758 # N B N
5318 2 1756 1759 1760 # N B N
5319 1 1757 1758 1759 # B N B
5320 2 1758 1757 1762 # N B N
5321 1 1757 1762 1761 # B N B
5322 1 1757 1762 1763 # B N B
5323 2 1758 1759 1760 # N B N
5324 1 1759 1760 1763 # B N B
5325 2 1760 1763 1762 # N B N
5326 2 1760 1763 1764 # N B N
5327 1 1761 1762 1763 # B N B
5328 2 1762 1761 1766 # N B N
5329 1 1761 1766 1765 # B N B
5330 1 1761 1766 1767 # B N B
5331 2 1762 1763 1764 # N B N
5332 1 1763 1764 1767 # B N B
5333 2 1764 1767 1766 # N B N
5334 2 1764 1767 1768 # N B N
5335 1 1765 1766 1767 # B N B
5336 2 1766 1765 1770 # N B N
5337 1 1765 1770 1769 # B N B
5338 1 1765 1770 1771 # B N B
5339 2 1766 1767 1768 # N B N
5340 1 1767 1768 1771 # B N B
5341 2 1768 1771 1770 # N B N
5342 2 1768 1771 1772 # N B N
5343 1 1769 1770 1771 # B N B
5344 2 1770 1769 1774 # N B N
5345 1 1769 1774 1773 # B N B
5346 1 1769 1774 1775 # B N B
5347 2 1770 1771 1772 # N B N
5348 1 1771 1772 1775 # B N B
5349 2 1772 1775 1774 # N B N
5350 2 1772 1775 1776 # N B N
5351 1 1773 1774 1775 # B N B
5352 2 1774 1773 1778 # N B N
5353 1 1773 1778 1777 # B N B
5354 1 1773 1778 1779 # B N B
5355 2 1774 1775 1776 # N B N
5356 1 1775 1776 1779 # B N B
5357 2 1776 1779 1778 # N B N
5358 2 1776 1779 1780 # N B N
5359 1 1777 1778 1779 # B N B
5360 2 1778 1777 1782 # N B N
5361 1 1777 1782 1781 # B N B
5362 1 1777 1782 1783 # B N B
5363 2 1778 1779 1780 # N B N
5364 1 1779 1780 1783 # B N B
5365 2 1780 1783 1782 # N B N
5366 2 1780 1783 1784 # N B N
5367 1 1781 1782 1783 # B N B
5368 2 1782 1781 1786 # N B N
5369 1 1781 1786 1785 # B N B
5370 1 1781 1786 1787 # B N B
5371 2 1782 1783 1784 # N B N
5372 1 1783 1784 1787 # B N B
5373 2 1784 1787 1786 # N B N
5374 2 1784 1787 1788 # N B N
5375 1 1785 1786 1787 # B N B
5376 2 1786 1785 1790 # N B N
5377 1 1785 1790 1789 # B N B
5378 1 1785 1790 1791 # B N B
5379 2 1786 1787 1788 # N B N
5380 1 1787 1788 1791 # B N B
5381 2 1788 1791 1790 # N B N
5382 2 1788 1791 1792 # N B N
5383 1 1789 1790 1791 # B N B
5384 2 1790 1789 1794 # N B N
5385 1 1789 1794 1793 # B N B
5386 1 1789 1794 1795 # B N B
5387 2 1790 1791 1792 # N B N
5388 1 1791 1792 1795 # B N B
5389 2 1792 1795 1794 # N B N
5390 2 1792 1795 1796 # N B N
5391 1 1793 1794 1795 # B N B
5392 2 1794 1793 1798 # N B N
5393 1 1793 1798 1797 # B N B
5394 1 1793 1798 1799 # B N B
5395 2 1794 1795 1796 # N B N
5396 1 1795 1796 1799 # B N B
5397 2 1796 1799 1798 # N B N
5398 2 1796 1799 1800 # N B N
5399 1 1797 1798 1799 # B N B
5400 2 1798 1799 1800 # N B N

Dihedrals

1 2 1 2 3 4 # B N B N cis
2 1 1 2 3 120 # B N B N trans
3 1 1 2 117 118 # B N B N trans
4 2 1 2 117 1800 # B N B N cis
5 1 2 1 6 5 # B N B N trans
6 2 2 1 6 7 # B N B N cis
7 2 2 1 1684 1683 # B N B N cis
8 1 2 1 1684 1687 # B N B N trans
9 1 1 6 5 10 # B N B N trans
10 2 1 6 5 1688 # B N B N cis
11 2 1 6 7 4 # B N B N cis
12 1 1 6 7 8 # B N B N trans
13 2 6 1 2 3 # B N B N cis
14 1 6 1 2 117 # B N B N trans
15 1 6 1 1684 1683 # B N B N trans
16 2 6 1 1684 1687 # B N B N cis
17 1 1 1684 1683 1682 # B N B N trans
18 2 1 1684 1683 1800 # B N B N cis
19 1 1 1684 1687 1686 # B N B N trans
20 2 1 1684 1687 1688 # B N B N cis
21 1 1684 1 2 3 # B N B N trans
22 2 1684 1 2 117 # B N B N cis
23 2 1684 1 6 5 # B N B N cis
24 1 1684 1 6 7 # B N B N trans
25 2 2 3 4 7 # B N B N cis
26 1 2 3 4 121 # B N B N trans
27 2 2 3 120 119 # B N B N cis
28 1 2 3 120 237 # B N B N trans
29 2 3 2 117 118 # B N B N cis
30 1 3 2 117 1800 # B N B N trans
31 1 2 117 118 113 # B N B N trans
32 2 2 117 118 119 # B N B N cis
33 2 2 117 1800 1683 # B N B N cis
34 1 2 117 1800 1799 # B N B N trans
35 1 117 2 3 4 # B N B N trans
36 2 117 2 3 120 # B N B N cis
37 2 3 4 7 6 # B N B N cis
38 1 3 4 7 8 # B N B N trans
39 1 3 4 121 126 # B N B N trans
40 2 3 4 121 122 # B N B N cis
41 1 4 3 120 119 # B N B N trans
42 2 4 3 120 237 # B N B N cis
43 2 3 120 119 118 # B N B N cis
44 1 3 120 119 116 # B N B N trans
45 2 3 120 237 122 # B N B N cis
46 1 3 120 237 238 # B N B N trans
47 1 120 3 4 7 # B N B N trans
48 2 120 3 4 121 # B N B N cis
49 1 4 7 6 5 # B N B N trans
50 1 4 7 8 11 # B N B N trans
51 2 4 7 8 125 # B N B N cis
52 2 7 4 121 126 # B N B N cis
53 1 7 4 121 122 # B N B N trans
54 2 4 121 126 125 # B N B N cis
55 1 4 121 126 127 # B N B N trans
56 2 4 121 122 237 # B N B N cis
57 1 4 121 122 123 # B N B N trans
58 1 121 4 7 6 # B N B N trans
59 2 121 4 7 8 # B N B N cis
60 2 5 6 7 8 # B N B N cis
61 1 6 5 10 9 # B N B N trans
62 2 6 5 10 11 # B N B N cis
63 2 6 5 1688 1687 # B N B N cis
64 1 6 5 1688 1691 # B N B N trans
65 1 5 10 9 14 # B N B N trans
66 2 5 10 9 1692 # B N B N cis
67 2 5 10 11 8 # B N B N cis
68 1 5 10 11 12 # B N B N trans
69 2 10 5 6 7 # B N B N cis
70 1 10 5 1688 1687 # B N B N trans
71 2 10 5 1688 1691 # B N B N cis
72 1 5 1688 1687 1686 # B N B N trans
73 2 5 1688 1687 1684 # B N B N cis
74 1 5 1688 1691 1690 # B N B N trans
75 2 5 1688 1691 1692 # B N B N cis
76 1 1688 5 6 7 # B N B N trans
77 2 1688 5 10 9 # B N B N cis
78 1 1688 5 10 11 # B N B N trans
79 2 6 7 8 11 # B N B N cis
80 1 6 7 8 125 # B N B N trans
81 2 7 8 11 10 # B N B N cis
82 1 7 8 11 12 # B N B N trans
83 1 7 8 125 130 # B N B N trans
84 2 7 8 125 126 # B N B N cis
85 1 8 11 10 9 # B N B N trans
86 1 8 11 12 15 # B N B N trans
87 2 8 11 12 129 # B N B N cis
88 2 11 8 125 130 # B N B N cis
89 1 11 8 125 126 # B N B N trans
90 2 8 125 130 129 # B N B N cis
91 1 8 125 130 131 # B N B N trans
92 2 8 125 126 121 # B N B N cis
93 1 8 125 126 127 # B N B N trans
94 1 125 8 11 10 # B N B N trans
95 2 125 8 11 12 # B N B N cis
96 2 9 10 11 12 # B N B N cis
97 1 10 9 14 13 # B N B N trans
98 2 10 9 14 15 # B N B N cis
99 2 10 9 1692 1691 # B N B N cis
100 1 10 9 1692 1695 # B N B N trans
101 1 9 14 13 18 # B N B N trans
102 2 9 14 13 1696 # B N B N cis
103 2 9 14 15 12 # B N B N cis
104 1 9 14 15 16 # B N B N trans
105 2 14 9 10 11 # B N B N cis
106 1 14 9 1692 1691 # B N B N trans
107 2 14 9 1692 1695 # B N B N cis
108 1 9 1692 1691 1690 # B N B N trans
109 2 9 1692 1691 1688 # B N B N cis
110 1 9 1692 1695 1694 # B N B N trans
111 2 9 1692 1695 1696 # B N B N cis
112 1 1692 9 10 11 # B N B N trans
113 2 1692 9 14 13 # B N B N cis
114 1 1692 9 14 15 # B N B N trans
115 2 10 11 12 15 # B N B N cis
116 1 10 11 12 129 # B N B N trans
117 2 11 12 15 14 # B N B N cis
118 1 11 12 15 16 # B N B N trans
119 1 11 12 129 134 # B N B N trans
120 2 11 12 129 130 # B N B N cis
121 1 12 15 14 13 # B N B N trans
122 1 12 15 16 19 # B N B N trans
123 2 12 15 16 133 # B N B N cis
124 2 15 12 129 134 # B N B N cis
125 1 15 12 129 130 # B N B N trans
126 2 12 129 134 133 # B N B N cis
127 1 12 129 134 135 # B N B N trans
128 2 12 129 130 125 # B N B N cis
129 1 12 129 130 131 # B N B N trans
130 1 129 12 15 14 # B N B N trans
131 2 129 12 15 16 # B N B N cis
132 2 13 14 15 16 # B N B N cis
133 1 14 13 18 17 # B N B N trans
134 2 14 13 18 19 # B N B N cis
135 2 14 13 1696 1695 # B N B N cis
136 1 14 13 1696 1699 # B N B N trans
137 1 13 18 17 22 # B N B N trans
138 2 13 18 17 1700 # B N B N cis
139 2 13 18 19 16 # B N B N cis
140 1 13 18 19 20 # B N B N trans
141 2 18 13 14 15 # B N B N cis
142 1 18 13 1696 1695 # B N B N trans
143 2 18 13 1696 1699 # B N B N cis
144 1 13 1696 1695 1694 # B N B N trans
145 2 13 1696 1695 1692 # B N B N cis
146 1 13 1696 1699 1698 # B N B N trans
147 2 13 1696 1699 1700 # B N B N cis
148 1 1696 13 14 15 # B N B N trans
149 2 1696 13 18 17 # B N B N cis
150 1 1696 13 18 19 # B N B N trans
151 2 14 15 16 19 # B N B N cis
152 1 14 15 16 133 # B N B N trans
153 2 15 16 19 18 # B N B N cis
154 1 15 16 19 20 # B N B N trans
155 1 15 16 133 138 # B N B N trans
156 2 15 16 133 134 # B N B N cis
157 1 16 19 18 17 # B N B N trans
158 1 16 19 20 23 # B N B N trans
159 2 16 19 20 137 # B N B N cis
160 2 19 16 133 138 # B N B N cis
161 1 19 16 133 134 # B N B N trans
162 2 16 133 138 137 # B N B N cis
163 1 16 133 138 139 # B N B N trans
164 2 16 133 134 129 # B N B N cis
165 1 16 133 134 135 # B N B N trans
166 1 133 16 19 18 # B N B N trans
167 2 133 16 19 20 # B N B N cis
168 2 17 18 19 20 # B N B N cis
169 1 18 17 22 21 # B N B N trans
170 2 18 17 22 23 # B N B N cis
171 2 18 17 1700 1699 # B N B N cis
172 1 18 17 1700 1703 # B N B N trans
173 1 17 22 21 26 # B N B N trans
174 2 17 22 21 1704 # B N B N cis
175 2 17 22 23 20 # B N B N cis
176 1 17 22 23 24 # B N B N trans
177 2 22 17 18 19 # B N B N cis
178 1 22 17 1700 1699 # B N B N trans
179 2 22 17 1700 1703 # B N B N cis
180 1 17 1700 1699 1698 # B N B N trans
181 2 17 1700 1699 1696 # B N B N cis
182 1 17 1700 1703 1702 # B N B N trans
183 2 17 1700 1703 1704 # B N B N cis
184 1 1700 17 18 19 # B N B N trans
185 2 1700 17 22 21 # B N B N cis
186 1 1700 17 22 23 # B N B N trans
187 2 18 19 20 23 # B N B N cis
188 1 18 19 20 137 # B N B N trans
189 2 19 20 23 22 # B N B N cis
190 1 19 20 23 24 # B N B N trans
191 1 19 20 137 142 # B N B N trans
192 2 19 20 137 138 # B N B N cis
193 1 20 23 22 21 # B N B N trans
194 1 20 23 24 27 # B N B N trans
195 2 20 23 24 141 # B N B N cis
196 2 23 20 137 142 # B N B N cis
197 1 23 20 137 138 # B N B N trans
198 2 20 137 142 141 # B N B N cis
199 1 20 137 142 143 # B N B N trans
200 2 20 137 138 133 # B N B N cis
201 1 20 137 138 139 # B N B N trans
202 1 137 20 23 22 # B N B N trans
203 2 137 20 23 24 # B N B N cis
204 2 21 22 23 24 # B N B N cis
205 1 22 21 26 25 # B N B N trans
206 2 22 21 26 27 # B N B N cis
207 2 22 21 1704 1703 # B N B N cis
208 1 22 21 1704 1707 # B N B N trans
209 1 21 26 25 30 # B N B N trans
210 2 21 26 25 1708 # B N B N cis
211 2 21 26 27 24 # B N B N cis
212 1 21 26 27 28 # B N B N trans
213 2 26 21 22 23 # B N B N cis
214 1 26 21 1704 1703 # B N B N trans
215 2 26 21 1704 1707 # B N B N cis
216 1 21 1704 1703 1702 # B N B N trans
217 2 21 1704 1703 1700 # B N B N cis
218 1 21 1704 1707 1706 # B N B N trans
219 2 21 1704 1707 1708 # B N B N cis
220 1 1704 21 22 23 # B N B N trans
221 2 1704 21 26 25 # B N B N cis
222 1 1704 21 26 27 # B N B N trans
223 2 22 23 24 27 # B N B N cis
224 1 22 23 24 141 # B N B N trans
225 2 23 24 27 26 # B N B N cis
226 1 23 24 27 28 # B N B N trans
227 1 23 24 141 146 # B N B N trans
228 2 23 24 141 142 # B N B N cis
229 1 24 27 26 25 # B N B N trans
230 1 24 27 28 31 # B N B N trans
231 2 24 27 28 145 # B N B N cis
232 2 27 24 141 146 # B N B N cis
233 1 27 24 141 142 # B N B N trans
234 2 24 141 146 145 # B N B N cis
235 1 24 141 146 147 # B N B N trans
236 2 24 141 142 137 # B N B N cis
237 1 24 141 142 143 # B N B N trans
238 1 141 24 27 26 # B N B N trans
239 2 141 24 27 28 # B N B N cis
240 2 25 26 27 28 # B N B N cis
241 1 26 25 30 29 # B N B N trans
242 2 26 25 30 31 # B N B N cis
243 2 26 25 1708 1707 # B N B N cis
244 1 26 25 1708 1711 # B N B N trans
245 1 25 30 29 34 # B N B N trans
246 2 25 30 29 1712 # B N B N cis
247 2 25 30 31 28 # B N B N cis
248 1 25 30 31 32 # B N B N trans
249 2 30 25 26 27 # B N B N cis
250 1 30 25 1708 1707 # B N B N trans
251 2 30 25 1708 1711 # B N B N cis
252 1 25 1708 1707 1706 # B N B N trans
253 2 25 1708 1707 1704 # B N B N cis
254 1 25 1708 1711 1710 # B N B N trans
255 2 25 1708 1711 1712 # B N B N cis
256 1 1708 25 26 27 # B N B N trans
257 2 1708 25 30 29 # B N B N cis
258 1 1708 25 30 31 # B N B N trans
259 2 26 27 28 31 # B N B N cis
260 1 26 27 28 145 # B N B N trans
261 2 27 28 31 30 # B N B N cis
262 1 27 28 31 32 # B N B N trans
263 1 27 28 145 150 # B N B N trans
264 2 27 28 145 146 # B N B N cis
265 1 28 31 30 29 # B N B N trans
266 1 28 31 32 35 # B N B N trans
267 2 28 31 32 149 # B N B N cis
268 2 31 28 145 150 # B N B N cis
269 1 31 28 145 146 # B N B N trans
270 2 28 145 150 149 # B N B N cis
271 1 28 145 150 151 # B N B N trans
272 2 28 145 146 141 # B N B N cis
273 1 28 145 146 147 # B N B N trans
274 1 145 28 31 30 # B N B N trans
275 2 145 28 31 32 # B N B N cis
276 2 29 30 31 32 # B N B N cis
277 1 30 29 34 33 # B N B N trans
278 2 30 29 34 35 # B N B N cis
279 2 30 29 1712 1711 # B N B N cis
280 1 30 29 1712 1715 # B N B N trans
281 1 29 34 33 38 # B N B N trans
282 2 29 34 33 1716 # B N B N cis
283 2 29 34 35 32 # B N B N cis
284 1 29 34 35 36 # B N B N trans
285 2 34 29 30 31 # B N B N cis
286 1 34 29 1712 1711 # B N B N trans
287 2 34 29 1712 1715 # B N B N cis
288 1 29 1712 1711 1710 # B N B N trans
289 2 29 1712 1711 1708 # B N B N cis
290 1 29 1712 1715 1714 # B N B N trans
291 2 29 1712 1715 1716 # B N B N cis
292 1 1712 29 30 31 # B N B N trans
293 2 1712 29 34 33 # B N B N cis
294 1 1712 29 34 35 # B N B N trans
295 2 30 31 32 35 # B N B N cis
296 1 30 31 32 149 # B N B N trans
297 2 31 32 35 34 # B N B N cis
298 1 31 32 35 36 # B N B N trans
299 1 31 32 149 154 # B N B N trans
300 2 31 32 149 150 # B N B N cis
301 1 32 35 34 33 # B N B N trans
302 1 32 35 36 39 # B N B N trans
303 2 32 35 36 153 # B N B N cis
304 2 35 32 149 154 # B N B N cis
305 1 35 32 149 150 # B N B N trans
306 2 32 149 154 153 # B N B N cis
307 1 32 149 154 155 # B N B N trans
308 2 32 149 150 145 # B N B N cis
309 1 32 149 150 151 # B N B N trans
310 1 149 32 35 34 # B N B N trans
311 2 149 32 35 36 # B N B N cis
312 2 33 34 35 36 # B N B N cis
313 1 34 33 38 37 # B N B N trans
314 2 34 33 38 39 # B N B N cis
315 2 34 33 1716 1715 # B N B N cis
316 1 34 33 1716 1719 # B N B N trans
317 1 33 38 37 42 # B N B N trans
318 2 33 38 37 1720 # B N B N cis
319 2 33 38 39 36 # B N B N cis
320 1 33 38 39 40 # B N B N trans
321 2 38 33 34 35 # B N B N cis
322 1 38 33 1716 1715 # B N B N trans
323 2 38 33 1716 1719 # B N B N cis
324 1 33 1716 1715 1714 # B N B N trans
325 2 33 1716 1715 1712 # B N B N cis
326 1 33 1716 1719 1718 # B N B N trans
327 2 33 1716 1719 1720 # B N B N cis
328 1 1716 33 34 35 # B N B N trans
329 2 1716 33 38 37 # B N B N cis
330 1 1716 33 38 39 # B N B N trans
331 2 34 35 36 39 # B N B N cis
332 1 34 35 36 153 # B N B N trans
333 2 35 36 39 38 # B N B N cis
334 1 35 36 39 40 # B N B N trans
335 1 35 36 153 158 # B N B N trans
336 2 35 36 153 154 # B N B N cis
337 1 36 39 38 37 # B N B N trans
338 1 36 39 40 43 # B N B N trans
339 2 36 39 40 157 # B N B N cis
340 2 39 36 153 158 # B N B N cis
341 1 39 36 153 154 # B N B N trans
342 2 36 153 158 157 # B N B N cis
343 1 36 153 158 159 # B N B N trans
344 2 36 153 154 149 # B N B N cis
345 1 36 153 154 155 # B N B N trans
346 1 153 36 39 38 # B N B N trans
347 2 153 36 39 40 # B N B N cis
348 2 37 38 39 40 # B N B N cis
349 1 38 37 42 41 # B N B N trans
350 2 38 37 42 43 # B N B N cis
351 2 38 37 1720 1719 # B N B N cis
352 1 38 37 1720 1723 # B N B N trans
353 1 37 42 41 46 # B N B N trans
354 2 37 42 41 1724 # B N B N cis
355 2 37 42 43 40 # B N B N cis
356 1 37 42 43 44 # B N B N trans
357 2 42 37 38 39 # B N B N cis
358 1 42 37 1720 1719 # B N B N trans
359 2 42 37 1720 1723 # B N B N cis
360 1 37 1720 1719 1718 # B N B N trans
361 2 37 1720 1719 1716 # B N B N cis
362 1 37 1720 1723 1722 # B N B N trans
363 2 37 1720 1723 1724 # B N B N cis
364 1 1720 37 38 39 # B N B N trans
365 2 1720 37 42 41 # B N B N cis
366 1 1720 37 42 43 # B N B N trans
367 2 38 39 40 43 # B N B N cis
368 1 38 39 40 157 # B N B N trans
369 2 39 40 43 42 # B N B N cis
370 1 39 40 43 44 # B N B N trans
371 1 39 40 157 162 # B N B N trans
372 2 39 40 157 158 # B N B N cis
373 1 40 43 42 41 # B N B N trans
374 1 40 43 44 47 # B N B N trans
375 2 40 43 44 161 # B N B N cis
376 2 43 40 157 162 # B N B N cis
377 1 43 40 157 158 # B N B N trans
378 2 40 157 162 161 # B N B N cis
379 1 40 157 162 163 # B N B N trans
380 2 40 157 158 153 # B N B N cis
381 1 40 157 158 159 # B N B N trans
382 1 157 40 43 42 # B N B N trans
383 2 157 40 43 44 # B N B N cis
384 2 41 42 43 44 # B N B N cis
385 1 42 41 46 45 # B N B N trans
386 2 42 41 46 47 # B N B N cis
387 2 42 41 1724 1723 # B N B N cis
388 1 42 41 1724 1727 # B N B N trans
389 1 41 46 45 50 # B N B N trans
390 2 41 46 45 1728 # B N B N cis
391 2 41 46 47 44 # B N B N cis
392 1 41 46 47 48 # B N B N trans
393 2 46 41 42 43 # B N B N cis
394 1 46 41 1724 1723 # B N B N trans
395 2 46 41 1724 1727 # B N B N cis
396 1 41 1724 1723 1722 # B N B N trans
397 2 41 1724 1723 1720 # B N B N cis
398 1 41 1724 1727 1726 # B N B N trans
399 2 41 1724 1727 1728 # B N B N cis
400 1 1724 41 42 43 # B N B N trans
401 2 1724 41 46 45 # B N B N cis
402 1 1724 41 46 47 # B N B N trans
403 2 42 43 44 47 # B N B N cis
404 1 42 43 44 161 # B N B N trans
405 2 43 44 47 46 # B N B N cis
406 1 43 44 47 48 # B N B N trans
407 1 43 44 161 166 # B N B N trans
408 2 43 44 161 162 # B N B N cis
409 1 44 47 46 45 # B N B N trans
410 1 44 47 48 51 # B N B N trans
411 2 44 47 48 165 # B N B N cis
412 2 47 44 161 166 # B N B N cis
413 1 47 44 161 162 # B N B N trans
414 2 44 161 166 165 # B N B N cis
415 1 44 161 166 167 # B N B N trans
416 2 44 161 162 157 # B N B N cis
417 1 44 161 162 163 # B N B N trans
418 1 161 44 47 46 # B N B N trans
419 2 161 44 47 48 # B N B N cis
420 2 45 46 47 48 # B N B N cis
421 1 46 45 50 49 # B N B N trans
422 2 46 45 50 51 # B N B N cis
423 2 46 45 1728 1727 # B N B N cis
424 1 46 45 1728 1731 # B N B N trans
425 1 45 50 49 54 # B N B N trans
426 2 45 50 49 1732 # B N B N cis
427 2 45 50 51 48 # B N B N cis
428 1 45 50 51 52 # B N B N trans
429 2 50 45 46 47 # B N B N cis
430 1 50 45 1728 1727 # B N B N trans
431 2 50 45 1728 1731 # B N B N cis
432 1 45 1728 1727 1726 # B N B N trans
433 2 45 1728 1727 1724 # B N B N cis
434 1 45 1728 1731 1730 # B N B N trans
435 2 45 1728 1731 1732 # B N B N cis
436 1 1728 45 46 47 # B N B N trans
437 2 1728 45 50 49 # B N B N cis
438 1 1728 45 50 51 # B N B N trans
439 2 46 47 48 51 # B N B N cis
440 1 46 47 48 165 # B N B N trans
441 2 47 48 51 50 # B N B N cis
442 1 47 48 51 52 # B N B N trans
443 1 47 48 165 170 # B N B N trans
444 2 47 48 165 166 # B N B N cis
445 1 48 51 50 49 # B N B N trans
446 1 48 51 52 55 # B N B N trans
447 2 48 51 52 169 # B N B N cis
448 2 51 48 165 170 # B N B N cis
449 1 51 48 165 166 # B N B N trans
450 2 48 165 170 169 # B N B N cis
451 1 48 165 170 171 # B N B N trans
452 2 48 165 166 161 # B N B N cis
453 1 48 165 166 167 # B N B N trans
454 1 165 48 51 50 # B N B N trans
455 2 165 48 51 52 # B N B N cis
456 2 49 50 51 52 # B N B N cis
457 1 50 49 54 53 # B N B N trans
458 2 50 49 54 55 # B N B N cis
459 2 50 49 1732 1731 # B N B N cis
460 1 50 49 1732 1735 # B N B N trans
461 1 49 54 53 58 # B N B N trans
462 2 49 54 53 1736 # B N B N cis
463 2 49 54 55 52 # B N B N cis
464 1 49 54 55 56 # B N B N trans
465 2 54 49 50 51 # B N B N cis
466 1 54 49 1732 1731 # B N B N trans
467 2 54 49 1732 1735 # B N B N cis
468 1 49 1732 1731 1730 # B N B N trans
469 2 49 1732 1731 1728 # B N B N cis
470 1 49 1732 1735 1734 # B N B N trans
471 2 49 1732 1735 1736 # B N B N cis
472 1 1732 49 50 51 # B N B N trans
473 2 1732 49 54 53 # B N B N cis
474 1 1732 49 54 55 # B N B N trans
475 2 50 51 52 55 # B N B N cis
476 1 50 51 52 169 # B N B N trans
477 2 51 52 55 54 # B N B N cis
478 1 51 52 55 56 # B N B N trans
479 1 51 52 169 174 # B N B N trans
480 2 51 52 169 170 # B N B N cis
481 1 52 55 54 53 # B N B N trans
482 1 52 55 56 59 # B N B N trans
483 2 52 55 56 173 # B N B N cis
484 2 55 52 169 174 # B N B N cis
485 1 55 52 169 170 # B N B N trans
486 2 52 169 174 173 # B N B N cis
487 1 52 169 174 175 # B N B N trans
488 2 52 169 170 165 # B N B N cis
489 1 52 169 170 171 # B N B N trans
490 1 169 52 55 54 # B N B N trans
491 2 169 52 55 56 # B N B N cis
492 2 53 54 55 56 # B N B N cis
493 1 54 53 58 57 # B N B N trans
494 2 54 53 58 59 # B N B N cis
495 2 54 53 1736 1735 # B N B N cis
496 1 54 53 1736 1739 # B N B N trans
497 1 53 58 57 62 # B N B N trans
498 2 53 58 57 1740 # B N B N cis
499 2 53 58 59 56 # B N B N cis
500 1 53 58 59 60 # B N B N trans
501 2 58 53 54 55 # B N B N cis
502 1 58 53 1736 1735 # B N B N trans
503 2 58 53 1736 1739 # B N B N cis
504 1 53 1736 1735 1734 # B N B N trans
505 2 53 1736 1735 1732 # B N B N cis
506 1 53 1736 1739 1738 # B N B N trans
507 2 53 1736 1739 1740 # B N B N cis
508 1 1736 53 54 55 # B N B N trans
509 2 1736 53 58 57 # B N B N cis
510 1 1736 53 58 59 # B N B N trans
511 2 54 55 56 59 # B N B N cis
512 1 54 55 56 173 # B N B N trans
513 2 55 56 59 58 # B N B N cis
514 1 55 56 59 60 # B N B N trans
515 1 55 56 173 178 # B N B N trans
516 2 55 56 173 174 # B N B N cis
517 1 56 59 58 57 # B N B N trans
518 1 56 59 60 63 # B N B N trans
519 2 56 59 60 177 # B N B N cis
520 2 59 56 173 178 # B N B N cis
521 1 59 56 173 174 # B N B N trans
522 2 56 173 178 177 # B N B N cis
523 1 56 173 178 179 # B N B N trans
524 2 56 173 174 169 # B N B N cis
525 1 56 173 174 175 # B N B N trans
526 1 173 56 59 58 # B N B N trans
527 2 173 56 59 60 # B N B N cis
528 2 57 58 59 60 # B N B N cis
529 1 58 57 62 61 # B N B N trans
530 2 58 57 62 63 # B N B N cis
531 2 58 57 1740 1739 # B N B N cis
532 1 58 57 1740 1743 # B N B N trans
533 1 57 62 61 66 # B N B N trans
534 2 57 62 61 1744 # B N B N cis
535 2 57 62 63 60 # B N B N cis
536 1 57 62 63 64 # B N B N trans
537 2 62 57 58 59 # B N B N cis
538 1 62 57 1740 1739 # B N B N trans
539 2 62 57 1740 1743 # B N B N cis
540 1 57 1740 1739 1738 # B N B N trans
541 2 57 1740 1739 1736 # B N B N cis
542 1 57 1740 1743 1742 # B N B N trans
543 2 57 1740 1743 1744 # B N B N cis
544 1 1740 57 58 59 # B N B N trans
545 2 1740 57 62 61 # B N B N cis
546 1 1740 57 62 63 # B N B N trans
547 2 58 59 60 63 # B N B N cis
548 1 58 59 60 177 # B N B N trans
549 2 59 60 63 62 # B N B N cis
550 1 59 60 63 64 # B N B N trans
551 1 59 60 177 182 # B N B N trans
552 2 59 60 177 178 # B N B N cis
553 1 60 63 62 61 # B N B N trans
554 1 60 63 64 67 # B N B N trans
555 2 60 63 64 181 # B N B N cis
556 2 63 60 177 182 # B N B N cis
557 1 63 60 177 178 # B N B N trans
558 2 60 177 182 181 # B N B N cis
559 1 60 177 182 183 # B N B N trans
560 2 60 177 178 173 # B N B N cis
561 1 60 177 178 179 # B N B N trans
562 1 177 60 63 62 # B N B N trans
563 2 177 60 63 64 # B N B N cis
564 2 61 62 63 64 # B N B N cis
565 1 62 61 66 65 # B N B N trans
566 2 62 61 66 67 # B N B N cis
567 2 62 61 1744 1743 # B N B N cis
568 1 62 61 1744 1747 # B N B N trans
569 1 61 66 65 70 # B N B N trans
570 2 61 66 65 1748 # B N B N cis
571 2 61 66 67 64 # B N B N cis
572 1 61 66 67 68 # B N B N trans
573 2 66 61 62 63 # B N B N cis
574 1 66 61 1744 1743 # B N B N trans
575 2 66 61 1744 1747 # B N B N cis
576 1 61 1744 1743 1742 # B N B N trans
577 2 61 1744 1743 1740 # B N B N cis
578 1 61 1744 1747 1746 # B N B N trans
579 2 61 1744 1747 1748 # B N B N cis
580 1 1744 61 62 63 # B N B N trans
581 2 1744 61 66 65 # B N B N cis
582 1 1744 61 66 67 # B N B N trans
583 2 62 63 64 67 # B N B N cis
584 1 62 63 64 181 # B N B N trans
585 2 63 64 67 66 # B N B N cis
586 1 63 64 67 68 # B N B N trans
587 1 63 64 181 186 # B N B N trans
588 2 63 64 181 182 # B N B N cis
589 1 64 67 66 65 # B N B N trans
590 1 64 67 68 71 # B N B N trans
591 2 64 67 68 185 # B N B N cis
592 2 67 64 181 186 # B N B N cis
593 1 67 64 181 182 # B N B N trans
594 2 64 181 186 185 # B N B N cis
595 1 64 181 186 187 # B N B N trans
596 2 64 181 182 177 # B N B N cis
597 1 64 181 182 183 # B N B N trans
598 1 181 64 67 66 # B N B N trans
599 2 181 64 67 68 # B N B N cis
600 2 65 66 67 68 # B N B N cis
601 1 66 65 70 69 # B N B N trans
602 2 66 65 70 71 # B N B N cis
603 2 66 65 1748 1747 # B N B N cis
604 1 66 65 1748 1751 # B N B N trans
605 1 65 70 69 74 # B N B N trans
606 2 65 70 69 1752 # B N B N cis
607 2 65 70 71 68 # B N B N cis
608 1 65 70 71 72 # B N B N trans
609 2 70 65 66 67 # B N B N cis
610 1 70 65 1748 1747 # B N B N trans
611 2 70 65 1748 1751 # B N B N cis
612 1 65 1748 1747 1746 # B N B N trans
613 2 65 1748 1747 1744 # B N B N cis
614 1 65 1748 1751 1750 # B N B N trans
615 2 65 1748 1751 1752 # B N B N cis
616 1 1748 65 66 67 # B N B N trans
617 2 1748 65 70 69 # B N B N cis
618 1 1748 65 70 71 # B N B N trans
619 2 66 67 68 71 # B N B N cis
620 1 66 67 68 185 # B N B N trans
621 2 67 68 71 70 # B N B N cis
622 1 67 68 71 72 # B N B N trans
623 1 67 68 185 190 # B N B N trans
624 2 67 68 185 186 # B N B N cis
625 1 68 71 70 69 # B N B N trans
626 1 68 71 72 75 # B N B N trans
627 2 68 71 72 189 # B N B N cis
628 2 71 68 185 190 # B N B N cis
629 1 71 68 185 186 # B N B N trans
630 2 68 185 190 189 # B N B N cis
631 1 68 185 190 191 # B N B N trans
632 2 68 185 186 181 # B N B N cis
633 1 68 185 186 187 # B N B N trans
634 1 185 68 71 70 # B N B N trans
635 2 185 68 71 72 # B N B N cis
636 2 69 70 71 72 # B N B N cis
637 1 70 69 74 73 # B N B N trans
638 2 70 69 74 75 # B N B N cis
639 2 70 69 1752 1751 # B N B N cis
640 1 70 69 1752 1755 # B N B N trans
641 1 69 74 73 78 # B N B N trans
642 2 69 74 73 1756 # B N B N cis
643 2 69 74 75 72 # B N B N cis
644 1 69 74 75 76 # B N B N trans
645 2 74 69 70 71 # B N B N cis
646 1 74 69 1752 1751 # B N B N trans
647 2 74 69 1752 1755 # B N B N cis
648 1 69 1752 1751 1750 # B N B N trans
649 2 69 1752 1751 1748 # B N B N cis
650 1 69 1752 1755 1754 # B N B N trans
651 2 69 1752 1755 1756 # B N B N cis
652 1 1752 69 70 71 # B N B N trans
653 2 1752 69 74 73 # B N B N cis
654 1 1752 69 74 75 # B N B N trans
655 2 70 71 72 75 # B N B N cis
656 1 70 71 72 189 # B N B N trans
657 2 71 72 75 74 # B N B N cis
658 1 71 72 75 76 # B N B N trans
659 1 71 72 189 194 # B N B N trans
660 2 71 72 189 190 # B N B N cis
661 1 72 75 74 73 # B N B N trans
662 1 72 75 76 79 # B N B N trans
663 2 72 75 76 193 # B N B N cis
664 2 75 72 189 194 # B N B N cis
665 1 75 72 189 190 # B N B N trans
666 2 72 189 194 193 # B N B N cis
667 1 72 189 194 195 # B N B N trans
668 2 72 189 190 185 # B N B N cis
669 1 72 189 190 191 # B N B N trans
670 1 189 72 75 74 # B N B N trans
671 2 189 72 75 76 # B N B N cis
672 2 73 74 75 76 # B N B N cis
673 1 74 73 78 77 # B N B N trans
674 2 74 73 78 79 # B N B N cis
675 2 74 73 1756 1755 # B N B N cis
676 1 74 73 1756 1759 # B N B N trans
677 1 73 78 77 82 # B N B N trans
678 2 73 78 77 1760 # B N B N cis
679 2 73 78 79 76 # B N B N cis
680 1 73 78 79 80 # B N B N trans
681 2 78 73 74 75 # B N B N cis
682 1 78 73 1756 1755 # B N B N trans
683 2 78 73 1756 1759 # B N B N cis
684 1 73 1756 1755 1754 # B N B N trans
685 2 73 1756 1755 1752 # B N B N cis
686 1 73 1756 1759 1758 # B N B N trans
687 2 73 1756 1759 1760 # B N B N cis
688 1 1756 73 74 75 # B N B N trans
689 2 1756 73 78 77 # B N B N cis
690 1 1756 73 78 79 # B N B N trans
691 2 74 75 76 79 # B N B N cis
692 1 74 75 76 193 # B N B N trans
693 2 75 76 79 78 # B N B N cis
694 1 75 76 79 80 # B N B N trans
695 1 75 76 193 198 # B N B N trans
696 2 75 76 193 194 # B N B N cis
697 1 76 79 78 77 # B N B N trans
698 1 76 79 80 83 # B N B N trans
699 2 76 79 80 197 # B N B N cis
700 2 79 76 193 198 # B N B N cis
701 1 79 76 193 194 # B N B N trans
702 2 76 193 198 197 # B N B N cis
703 1 76 193 198 199 # B N B N trans
704 2 76 193 194 189 # B N B N cis
705 1 76 193 194 195 # B N B N trans
706 1 193 76 79 78 # B N B N trans
707 2 193 76 79 80 # B N B N cis
708 2 77 78 79 80 # B N B N cis
709 1 78 77 82 81 # B N B N trans
710 2 78 77 82 83 # B N B N cis
711 2 78 77 1760 1759 # B N B N cis
712 1 78 77 1760 1763 # B N B N trans
713 1 77 82 81 86 # B N B N trans
714 2 77 82 81 1764 # B N B N cis
715 2 77 82 83 80 # B N B N cis
716 1 77 82 83 84 # B N B N trans
717 2 82 77 78 79 # B N B N cis
718 1 82 77 1760 1759 # B N B N trans
719 2 82 77 1760 1763 # B N B N cis
720 1 77 1760 1759 1758 # B N B N trans
721 2 77 1760 1759 1756 # B N B N cis
722 1 77 1760 1763 1762 # B N B N trans
723 2 77 1760 1763 1764 # B N B N cis
724 1 1760 77 78 79 # B N B N trans
725 2 1760 77 82 81 # B N B N cis
726 1 1760 77 82 83 # B N B N trans
727 2 78 79 80 83 # B N B N cis
728 1 78 79 80 197 # B N B N trans
729 2 79 80 83 82 # B N B N cis
730 1 79 80 83 84 # B N B N trans
731 1 79 80 197 202 # B N B N trans
732 2 79 80 197 198 # B N B N cis
733 1 80 83 82 81 # B N B N trans
734 1 80 83 84 87 # B N B N trans
735 2 80 83 84 201 # B N B N cis
736 2 83 80 197 202 # B N B N cis
737 1 83 80 197 198 # B N B N trans
738 2 80 197 202 201 # B N B N cis
739 1 80 197 202 203 # B N B N trans
740 2 80 197 198 193 # B N B N cis
741 1 80 197 198 199 # B N B N trans
742 1 197 80 83 82 # B N B N trans
743 2 197 80 83 84 # B N B N cis
744 2 81 82 83 84 # B N B N cis
745 1 82 81 86 85 # B N B N trans
746 2 82 81 86 87 # B N B N cis
747 2 82 81 1764 1763 # B N B N cis
748 1 82 81 1764 1767 # B N B N trans
749 1 81 86 85 90 # B N B N trans
750 2 81 86 85 1768 # B N B N cis
751 2 81 86 87 84 # B N B N cis
752 1 81 86 87 88 # B N B N trans
753 2 86 81 82 83 # B N B N cis
754 1 86 81 1764 1763 # B N B N trans
755 2 86 81 1764 1767 # B N B N cis
756 1 81 1764 1763 1762 # B N B N trans
757 2 81 1764 1763 1760 # B N B N cis
758 1 81 1764 1767 1766 # B N B N trans
759 2 81 1764 1767 1768 # B N B N cis
760 1 1764 81 82 83 # B N B N trans
761 2 1764 81 86 85 # B N B N cis
762 1 1764 81 86 87 # B N B N trans
763 2 82 83 84 87 # B N B N cis
764 1 82 83 84 201 # B N B N trans
765 2 83 84 87 86 # B N B N cis
766 1 83 84 87 88 # B N B N trans
767 1 83 84 201 206 # B N B N trans
768 2 83 84 201 202 # B N B N cis
769 1 84 87 86 85 # B N B N trans
770 1 84 87 88 91 # B N B N trans
771 2 84 87 88 205 # B N B N cis
772 2 87 84 201 206 # B N B N cis
773 1 87 84 201 202 # B N B N trans
774 2 84 201 206 205 # B N B N cis
775 1 84 201 206 207 # B N B N trans
776 2 84 201 202 197 # B N B N cis
777 1 84 201 202 203 # B N B N trans
778 1 201 84 87 86 # B N B N trans
779 2 201 84 87 88 # B N B N cis
780 2 85 86 87 88 # B N B N cis
781 1 86 85 90 89 # B N B N trans
782 2 86 85 90 91 # B N B N cis
783 2 86 85 1768 1767 # B N B N cis
784 1 86 85 1768 1771 # B N B N trans
785 1 85 90 89 94 # B N B N trans
786 2 85 90 89 1772 # B N B N cis
787 2 85 90 91 88 # B N B N cis
788 1 85 90 91 92 # B N B N trans
789 2 90 85 86 87 # B N B N cis
790 1 90 85 1768 1767 # B N B N trans
791 2 90 85 1768 1771 # B N B N cis
792 1 85 1768 1767 1766 # B N B N trans
793 2 85 1768 1767 1764 # B N B N cis
794 1 85 1768 1771 1770 # B N B N trans
795 2 85 1768 1771 1772 # B N B N cis
796 1 1768 85 86 87 # B N B N trans
797 2 1768 85 90 89 # B N B N cis
798 1 1768 85 90 91 # B N B N trans
799 2 86 87 88 91 # B N B N cis
800 1 86 87 88 205 # B N B N trans
801 2 87 88 91 90 # B N B N cis
802 1 87 88 91 92 # B N B N trans
803 1 87 88 205 210 # B N B N trans
804 2 87 88 205 206 # B N B N cis
805 1 88 91 90 89 # B N B N trans
806 1 88 91 92 95 # B N B N trans
807 2 88 91 92 209 # B N B N cis
808 2 91 88 205 210 # B N B N cis
809 1 91 88 205 206 # B N B N trans
810 2 88 205 210 209 # B N B N cis
811 1 88 205 210 211 # B N B N trans
812 2 88 205 206 201 # B N B N cis
813 1 88 205 206 207 # B N B N trans
814 1 205 88 91 90 # B N B N trans
815 2 205 88 91 92 # B N B N cis
816 2 89 90 91 92 # B N B N cis
817 1 90 89 94 93 # B N B N trans
818 2 90 89 94 95 # B N B N cis
819 2 90 89 1772 1771 # B N B N cis
820 1 90 89 1772 1775 # B N B N trans
821 1 89 94 93 98 # B N B N trans
822 2 89 94 93 1776 # B N B N cis
823 2 89 94 95 92 # B N B N cis
824 1 89 94 95 96 # B N B N trans
825 2 94 89 90 91 # B N B N cis
826 1 94 89 1772 1771 # B N B N trans
827 2 94 89 1772 1775 # B N B N cis
828 1 89 1772 1771 1770 # B N B N trans
829 2 89 1772 1771 1768 # B N B N cis
830 1 89 1772 1775 1774 # B N B N trans
831 2 89 1772 1775 1776 # B N B N cis
832 1 1772 89 90 91 # B N B N trans
833 2 1772 89 94 93 # B N B N cis
834 1 1772 89 94 95 # B N B N trans
835 2 90 91 92 95 # B N B N cis
836 1 90 91 92 209 # B N B N trans
837 2 91 92 95 94 # B N B N cis
838 1 91 92 95 96 # B N B N trans
839 1 91 92 209 214 # B N B N trans
840 2 91 92 209 210 # B N B N cis
841 1 92 95 94 93 # B N B N trans
842 1 92 95 96 99 # B N B N trans
843 2 92 95 96 213 # B N B N cis
844 2 95 92 209 214 # B N B N cis
845 1 95 92 209 210 # B N B N trans
846 2 92 209 214 213 # B N B N cis
847 1 92 209 214 215 # B N B N trans
848 2 92 209 210 205 # B N B N cis
849 1 92 209 210 211 # B N B N trans
850 1 209 92 95 94 # B N B N trans
851 2 209 92 95 96 # B N B N cis
852 2 93 94 95 96 # B N B N cis
853 1 94 93 98 97 # B N B N trans
854 2 94 93 98 99 # B N B N cis
855 2 94 93 1776 1775 # B N B N cis
856 1 94 93 1776 1779 # B N B N trans
857 1 93 98 97 102 # B N B N trans
858 2 93 98 97 1780 # B N B N cis
859 2 93 98 99 96 # B N B N cis
860 1 93 98 99 100 # B N B N trans
861 2 98 93 94 95 # B N B N cis
862 1 98 93 1776 1775 # B N B N trans
863 2 98 93 1776 1779 # B N B N cis
864 1 93 1776 1775 1774 # B N B N trans
865 2 93 1776 1775 1772 # B N B N cis
866 1 93 1776 1779 1778 # B N B N trans
867 2 93 1776 1779 1780 # B N B N cis
868 1 1776 93 94 95 # B N B N trans
869 2 1776 93 98 97 # B N B N cis
870 1 1776 93 98 99 # B N B N trans
871 2 94 95 96 99 # B N B N cis
872 1 94 95 96 213 # B N B N trans
873 2 95 96 99 98 # B N B N cis
874 1 95 96 99 100 # B N B N trans
875 1 95 96 213 218 # B N B N trans
876 2 95 96 213 214 # B N B N cis
877 1 96 99 98 97 # B N B N trans
878 1 96 99 100 103 # B N B N trans
879 2 96 99 100 217 # B N B N cis
880 2 99 96 213 218 # B N B N cis
881 1 99 96 213 214 # B N B N trans
882 2 96 213 218 217 # B N B N cis
883 1 96 213 218 219 # B N B N trans
884 2 96 213 214 209 # B N B N cis
885 1 96 213 214 215 # B N B N trans
886 1 213 96 99 98 # B N B N trans
887 2 213 96 99 100 # B N B N cis
888 2 97 98 99 100 # B N B N cis
889 1 98 97 102 101 # B N B N trans
890 2 98 97 102 103 # B N B N cis
891 2 98 97 1780 1779 # B N B N cis
892 1 98 97 1780 1783 # B N B N trans
893 1 97 102 101 106 # B N B N trans
894 2 97 102 101 1784 # B N B N cis
895 2 97 102 103 100 # B N B N cis
896 1 97 102 103 104 # B N B N trans
897 2 102 97 98 99 # B N B N cis
898 1 102 97 1780 1779 # B N B N trans
899 2 102 97 1780 1783 # B N B N cis
900 1 97 1780 1779 1778 # B N B N trans
901 2 97 1780 1779 1776 # B N B N cis
902 1 97 1780 1783 1782 # B N B N trans
903 2 97 1780 1783 1784 # B N B N cis
904 1 1780 97 98 99 # B N B N trans
905 2 1780 97 102 101 # B N B N cis
906 1 1780 97 102 103 # B N B N trans
907 2 98 99 100 103 # B N B N cis
908 1 98 99 100 217 # B N B N trans
909 2 99 100 103 102 # B N B N cis
910 1 99 100 103 104 # B N B N trans
911 1 99 100 217 222 # B N B N trans
912 2 99 100 217 218 # B N B N cis
913 1 100 103 102 101 # B N B N trans
914 1 100 103 104 107 # B N B N trans
915 2 100 103 104 221 # B N B N cis
916 2 103 100 217 222 # B N B N cis
917 1 103 100 217 218 # B N B N trans
918 2 100 217 222 221 # B N B N cis
919 1 100 217 222 223 # B N B N trans
920 2 100 217 218 213 # B N B N cis
921 1 100 217 218 219 # B N B N trans
922 1 217 100 103 102 # B N B N trans
923 2 217 100 103 104 # B N B N cis
924 2 101 102 103 104 # B N B N cis
925 1 102 101 106 105 # B N B N trans
926 2 102 101 106 107 # B N B N cis
927 2 102 101 1784 1783 # B N B N cis
928 1 102 101 1784 1787 # B N B N trans
929 1 101 106 105 110 # B N B N trans
930 2 101 106 105 1788 # B N B N cis
931 2 101 106 107 104 # B N B N cis
932 1 101 106 107 108 # B N B N trans
933 2 106 101 102 103 # B N B N cis
934 1 106 101 1784 1783 # B N B N trans
935 2 106 101 1784 1787 # B N B N cis
936 1 101 1784 1783 1782 # B N B N trans
937 2 101 1784 1783 1780 # B N B N cis
938 1 101 1784 1787 1786 # B N B N trans
939 2 101 1784 1787 1788 # B N B N cis
940 1 1784 101 102 103 # B N B N trans
941 2 1784 101 106 105 # B N B N cis
942 1 1784 101 106 107 # B N B N trans
943 2 102 103 104 107 # B N B N cis
944 1 102 103 104 221 # B N B N trans
945 2 103 104 107 106 # B N B N cis
946 1 103 104 107 108 # B N B N trans
947 1 103 104 221 226 # B N B N trans
948 2 103 104 221 222 # B N B N cis
949 1 104 107 106 105 # B N B N trans
950 1 104 107 108 111 # B N B N trans
951 2 104 107 108 225 # B N B N cis
952 2 107 104 221 226 # B N B N cis
953 1 107 104 221 222 # B N B N trans
954 2 104 221 226 225 # B N B N cis
955 1 104 221 226 227 # B N B N trans
956 2 104 221 222 217 # B N B N cis
957 1 104 221 222 223 # B N B N trans
958 1 221 104 107 106 # B N B N trans
959 2 221 104 107 108 # B N B N cis
960 2 105 106 107 108 # B N B N cis
961 1 106 105 110 109 # B N B N trans
962 2 106 105 110 111 # B N B N cis
963 2 106 105 1788 1787 # B N B N cis
964 1 106 105 1788 1791 # B N B N trans
965 1 105 110 109 114 # B N B N trans
966 2 105 110 109 1792 # B N B N cis
967 2 105 110 111 108 # B N B N cis
968 1 105 110 111 112 # B N B N trans
969 2 110 105 106 107 # B N B N cis
970 1 110 105 1788 1787 # B N B N trans
971 2 110 105 1788 1791 # B N B N cis
972 1 105 1788 1787 1786 # B N B N trans
973 2 105 1788 1787 1784 # B N B N cis
974 1 105 1788 1791 1790 # B N B N trans
975 2 105 1788 1791 1792 # B N B N cis
976 1 1788 105 106 107 # B N B N trans
977 2 1788 105 110 109 # B N B N cis
978 1 1788 105 110 111 # B N B N trans
979 2 106 107 108 111 # B N B N cis
980 1 106 107 108 225 # B N B N trans
981 2 107 108 111 110 # B N B N cis
982 1 107 108 111 112 # B N B N trans
983 1 107 108 225 230 # B N B N trans
984 2 107 108 225 226 # B N B N cis
985 1 108 111 110 109 # B N B N trans
986 1 108 111 112 115 # B N B N trans
987 2 108 111 112 229 # B N B N cis
988 2 111 108 225 230 # B N B N cis
989 1 111 108 225 226 # B N B N trans
990 2 108 225 230 229 # B N B N cis
991 1 108 225 230 231 # B N B N trans
992 2 108 225 226 221 # B N B N cis
993 1 108 225 226 227 # B N B N trans
994 1 225 108 111 110 # B N B N trans
995 2 225 108 111 112 # B N B N cis
996 2 109 110 111 112 # B N B N cis
997 1 110 109 114 113 # B N B N trans
998 2 110 109 114 115 # B N B N cis
999 2 110 109 1792 1791 # B N B N cis
1000 1 110 109 1792 1795 # B N B N trans
1001 1 109 114 113 118 # B N B N trans
1002 2 109 114 113 1796 # B N B N cis
1003 2 109 114 115 112 # B N B N cis
1004 1 109 114 115 116 # B N B N trans
1005 2 114 109 110 111 # B N B N cis
1006 1 114 109 1792 1791 # B N B N trans
1007 2 114 109 1792 1795 # B N B N cis
1008 1 109 1792 1791 1790 # B N B N trans
1009 2 109 1792 1791 1788 # B N B N cis
1010 1 109 1792 1795 1794 # B N B N trans
1011 2 109 1792 1795 1796 # B N B N cis
1012 1 1792 109 110 111 # B N B N trans
1013 2 1792 109 114 113 # B N B N cis
1014 1 1792 109 114 115 # B N B N trans
1015 2 110 111 112 115 # B N B N cis
1016 1 110 111 112 229 # B N B N trans
1017 2 111 112 115 114 # B N B N cis
1018 1 111 112 115 116 # B N B N trans
1019 1 111 112 229 234 # B N B N trans
1020 2 111 112 229 230 # B N B N cis
1021 1 112 115 114 113 # B N B N trans
1022 1 112 115 116 119 # B N B N trans
1023 2 112 115 116 233 # B N B N cis
1024 2 115 112 229 234 # B N B N cis
1025 1 115 112 229 230 # B N B N trans
1026 2 112 229 234 233 # B N B N cis
1027 1 112 229 234 235 # B N B N trans
1028 2 112 229 230 225 # B N B N cis
1029 1 112 229 230 231 # B N B N trans
1030 1 229 112 115 114 # B N B N trans
1031 2 229 112 115 116 # B N B N cis
1032 2 113 114 115 116 # B N B N cis
1033 1 114 113 118 117 # B N B N trans
1034 2 114 113 118 119 # B N B N cis
1035 2 114 113 1796 1795 # B N B N cis
1036 1 114 113 1796 1799 # B N B N trans
1037 2 113 118 117 1800 # B N B N cis
1038 2 113 118 119 116 # B N B N cis
1039 1 113 118 119 120 # B N B N trans
1040 2 118 113 114 115 # B N B N cis
1041 1 118 113 1796 1795 # B N B N trans
1042 2 118 113 1796 1799 # B N B N cis
1043 1 113 1796 1795 1794 # B N B N trans
1044 2 113 1796 1795 1792 # B N B N cis
1045 1 113 1796 1799 1798 # B N B N trans
1046 2 113 1796 1799 1800 # B N B N cis
1047 1 1796 113 114 115 # B N B N trans
1048 2 1796 113 118 117 # B N B N cis
1049 1 1796 113 118 119 # B N B N trans
1050 2 114 115 116 119 # B N B N cis
1051 1 114 115 116 233 # B N B N trans
1052 2 115 116 119 118 # B N B N cis
1053 1 115 116 119 120 # B N B N trans
1054 1 115 116 233 238 # B N B N trans
1055 2 115 116 233 234 # B N B N cis
1056 1 116 119 118 117 # B N B N trans
1057 2 116 119 120 237 # B N B N cis
1058 2 119 116 233 238 # B N B N cis
1059 1 119 116 233 234 # B N B N trans
1060 2 116 233 238 237 # B N B N cis
1061 1 116 233 238 239 # B N B N trans
1062 2 116 233 234 229 # B N B N cis
1063 1 116 233 234 235 # B N B N trans
1064 1 233 116 119 118 # B N B N trans
1065 2 233 116 119 120 # B N B N cis
1066 2 117 118 119 120 # B N B N cis
1067 1 118 117 1800 1683 # B N B N trans
1068 2 118 117 1800 1799 # B N B N cis
1069 1 117 1800 1683 1682 # B N B N trans
1070 2 117 1800 1683 1684 # B N B N cis
1071 1 117 1800 1799 1798 # B N B N trans
1072 2 117 1800 1799 1796 # B N B N cis
1073 1 1800 117 118 119 # B N B N trans
1074 1 118 119 120 237 # B N B N trans
1075 1 119 120 237 122 # B N B N trans
1076 2 119 120 237 238 # B N B N cis
1077 2 120 237 122 121 # B N B N cis
1078 1 120 237 122 123 # B N B N trans
1079 2 120 237 238 233 # B N B N cis
1080 1 120 237 238 239 # B N B N trans
1081 1 121 126 125 130 # B N B N trans
1082 2 121 126 127 124 # B N B N cis
1083 1 121 126 127 128 # B N B N trans
1084 1 126 121 122 237 # B N B N trans
1085 2 126 121 122 123 # B N B N cis
1086 1 121 122 237 238 # B N B N trans
1087 2 121 122 123 124 # B N B N cis
1088 1 121 122 123 240 # B N B N trans
1089 1 122 121 126 125 # B N B N trans
1090 2 122 121 126 127 # B N B N cis
1091 1 122 237 238 233 # B N B N trans
1092 2 122 237 238 239 # B N B N cis
1093 1 237 122 123 124 # B N B N trans
1094 2 237 122 123 240 # B N B N cis
1095 2 122 123 124 127 # B N B N cis
1096 1 122 123 124 241 # B N B N trans
1097 2 122 123 240 239 # B N B N cis
1098 1 122 123 240 357 # B N B N trans
1099 2 123 122 237 238 # B N B N cis
1100 2 123 124 127 126 # B N B N cis
1101 1 123 124 127 128 # B N B N trans
1102 1 123 124 241 246 # B N B N trans
1103 2 123 124 241 242 # B N B N cis
1104 1 124 123 240 239 # B N B N trans
1105 2 124 123 240 357 # B N B N cis
1106 2 123 240 239 238 # B N B N cis
1107 1 123 240 239 236 # B N B N trans
1108 2 123 240 357 242 # B N B N cis
1109 1 123 240 357 358 # B N B N trans
1110 1 240 123 124 127 # B N B N trans
1111 2 240 123 124 241 # B N B N cis
1112 1 124 127 126 125 # B N B N trans
1113 1 124 127 128 131 # B N B N trans
1114 2 124 127 128 245 # B N B N cis
1115 2 127 124 241 246 # B N B N cis
1116 1 127 124 241 242 # B N B N trans
1117 2 124 241 246 245 # B N B N cis
1118 1 124 241 246 247 # B N B N trans
1119 2 124 241 242 357 # B N B N cis
1120 1 124 241 242 243 # B N B N trans
1121 1 241 124 127 126 # B N B N trans
1122 2 241 124 127 128 # B N B N cis
1123 1 125 130 129 134 # B N B N trans
1124 2 125 130 131 128 # B N B N cis
1125 1 125 130 131 132 # B N B N trans
1126 2 130 125 126 127 # B N B N cis
1127 2 125 126 127 128 # B N B N cis
1128 1 126 125 130 129 # B N B N trans
1129 2 126 125 130 131 # B N B N cis
1130 2 126 127 128 131 # B N B N cis
1131 1 126 127 128 245 # B N B N trans
1132 2 127 128 131 130 # B N B N cis
1133 1 127 128 131 132 # B N B N trans
1134 1 127 128 245 250 # B N B N trans
1135 2 127 128 245 246 # B N B N cis
1136 1 128 131 130 129 # B N B N trans
1137 1 128 131 132 135 # B N B N trans
1138 2 128 131 132 249 # B N B N cis
1139 2 131 128 245 250 # B N B N cis
1140 1 131 128 245 246 # B N B N trans
1141 2 128 245 250 249 # B N B N cis
1142 1 128 245 250 251 # B N B N trans
1143 2 128 245 246 241 # B N B N cis
1144 1 128 245 246 247 # B N B N trans
1145 1 245 128 131 130 # B N B N trans
1146 2 245 128 131 132 # B N B N cis
1147 1 129 134 133 138 # B N B N trans
1148 2 129 134 135 132 # B N B N cis
1149 1 129 134 135 136 # B N B N trans
1150 2 134 129 130 131 # B N B N cis
1151 2 129 130 131 132 # B N B N cis
1152 1 130 129 134 133 # B N B N trans
1153 2 130 129 134 135 # B N B N cis
1154 2 130 131 132 135 # B N B N cis
1155 1 130 131 132 249 # B N B N trans
1156 2 131 132 135 134 # B N B N cis
1157 1 131 132 135 136 # B N B N trans
1158 1 131 132 249 254 # B N B N trans
1159 2 131 132 249 250 # B N B N cis
1160 1 132 135 134 133 # B N B N trans
1161 1 132 135 136 139 # B N B N trans
1162 2 132 135 136 253 # B N B N cis
1163 2 135 132 249 254 # B N B N cis
1164 1 135 132 249 250 # B N B N trans
1165 2 132 249 254 253 # B N B N cis
1166 1 132 249 254 255 # B N B N trans
1167 2 132 249 250 245 # B N B N cis
1168 1 132 249 250 251 # B N B N trans
1169 1 249 132 135 134 # B N B N trans
1170 2 249 132 135 136 # B N B N cis
1171 1 133 138 137 142 # B N B N trans
1172 2 133 138 139 136 # B N B N cis
1173 1 133 138 139 140 # B N B N trans
1174 2 138 133 134 135 # B N B N cis
1175 2 133 134 135 136 # B N B N cis
1176 1 134 133 138 137 # B N B N trans
1177 2 134 133 138 139 # B N B N cis
1178 2 134 135 136 139 # B N B N cis
1179 1 134 135 136 253 # B N B N trans
1180 2 135 136 139 138 # B N B N cis
1181 1 135 136 139 140 # B N B N trans
1182 1 135 136 253 258 # B N B N trans
1183 2 135 136 253 254 # B N B N cis
1184 1 136 139 138 137 # B N B N trans
1185 1 136 139 140 143 # B N B N trans
1186 2 136 139 140 257 # B N B N cis
1187 2 139 136 253 258 # B N B N cis
1188 1 139 136 253 254 # B N B N trans
1189 2 136 253 258 257 # B N B N cis
1190 1 136 253 258 259 # B N B N trans
1191 2 136 253 254 249 # B N B N cis
1192 1 136 253 254 255 # B N B N trans
1193 1 253 136 139 138 # B N B N trans
1194 2 253 136 139 140 # B N B N cis
1195 1 137 142 141 146 # B N B N trans
1196 2 137 142 143 140 # B N B N cis
1197 1 137 142 143 144 # B N B N trans
1198 2 142 137 138 139 # B N B N cis
1199 2 137 138 139 140 # B N B N cis
1200 1 138 137 142 141 # B N B N trans
1201 2 138 137 142 143 # B N B N cis
1202 2 138 139 140 143 # B N B N cis
1203 1 138 139 140 257 # B N B N trans
1204 2 139 140 143 142 # B N B N cis
1205 1 139 140 143 144 # B N B N trans
1206 1 139 140 257 262 # B N B N trans
1207 2 139 140 257 258 # B N B N cis
1208 1 140 143 142 141 # B N B N trans
1209 1 140 143 144 147 # B N B N trans
1210 2 140 143 144 261 # B N B N cis
1211 2 143 140 257 262 # B N B N cis
1212 1 143 140 257 258 # B N B N trans
1213 2 140 257 262 261 # B N B N cis
1214 1 140 257 262 263 # B N B N trans
1215 2 140 257 258 253 # B N B N cis
1216 1 140 257 258 259 # B N B N trans
1217 1 257 140 143 142 # B N B N trans
1218 2 257 140 143 144 # B N B N cis
1219 1 141 146 145 150 # B N B N trans
1220 2 141 146 147 144 # B N B N cis
1221 1 141 146 147 148 # B N B N trans
1222 2 146 141 142 143 # B N B N cis
1223 2 141 142 143 144 # B N B N cis
1224 1 142 141 146 145 # B N B N trans
1225 2 142 141 146 147 # B N B N cis
1226 2 142 143 144 147 # B N B N cis
1227 1 142 143 144 261 # B N B N trans
1228 2 143 144 147 146 # B N B N cis
1229 1 143 144 147 148 # B N B N trans
1230 1 143 144 261 266 # B N B N trans
1231 2 143 144 261 262 # B N B N cis
1232 1 144 147 146 145 # B N B N trans
1233 1 144 147 148 151 # B N B N trans
1234 2 144 147 148 265 # B N B N cis
1235 2 147 144 261 266 # B N B N cis
1236 1 147 144 261 262 # B N B N trans
1237 2 144 261 266 265 # B N B N cis
1238 1 144 261 266 267 # B N B N trans
1239 2 144 261 262 257 # B N B N cis
1240 1 144 261 262 263 # B N B N trans
1241 1 261 144 147 146 # B N B N trans
1242 2 261 144 147 148 # B N B N cis
1243 1 145 150 149 154 # B N B N trans
1244 2 145 150 151 148 # B N B N cis
1245 1 145 150 151 152 # B N B N trans
1246 2 150 145 146 147 # B N B N cis
1247 2 145 146 147 148 # B N B N cis
1248 1 146 145 150 149 # B N B N trans
1249 2 146 145 150 151 # B N B N cis
1250 2 146 147 148 151 # B N B N cis
1251 1 146 147 148 265 # B N B N trans
1252 2 147 148 151 150 # B N B N cis
1253 1 147 148 151 152 # B N B N trans
1254 1 147 148 265 270 # B N B N trans
1255 2 147 148 265 266 # B N B N cis
1256 1 148 151 150 149 # B N B N trans
1257 1 148 151 152 155 # B N B N trans
1258 2 148 151 152 269 # B N B N cis
1259 2 151 148 265 270 # B N B N cis
1260 1 151 148 265 266 # B N B N trans
1261 2 148 265 270 269 # B N B N cis
1262 1 148 265 270 271 # B N B N trans
1263 2 148 265 266 261 # B N B N cis
1264 1 148 265 266 267 # B N B N trans
1265 1 265 148 151 150 # B N B N trans
1266 2 265 148 151 152 # B N B N cis
1267 1 149 154 153 158 # B N B N trans
1268 2 149 154 155 152 # B N B N cis
1269 1 149 154 155 156 # B N B N trans
1270 2 154 149 150 151 # B N B N cis
1271 2 149 150 151 152 # B N B N cis
1272 1 150 149 154 153 # B N B N trans
1273 2 150 149 154 155 # B N B N cis
1274 2 150 151 152 155 # B N B N cis
1275 1 150 151 152 269 # B N B N trans
1276 2 151 152 155 154 # B N B N cis
1277 1 151 152 155 156 # B N B N trans
1278 1 151 152 269 274 # B N B N trans
1279 2 151 152 269 270 # B N B N cis
1280 1 152 155 154 153 # B N B N trans
1281 1 152 155 156 159 # B N B N trans
1282 2 152 155 156 273 # B N B N cis
1283 2 155 152 269 274 # B N B N cis
1284 1 155 152 269 270 # B N B N trans
1285 2 152 269 274 273 # B N B N cis
1286 1 152 269 274 275 # B N B N trans
1287 2 152 269 270 265 # B N B N cis
1288 1 152 269 270 271 # B N B N trans
1289 1 269 152 155 154 # B N B N trans
1290 2 269 152 155 156 # B N B N cis
1291 1 153 158 157 162 # B N B N trans
1292 2 153 158 159 156 # B N B N cis
1293 1 153 158 159 160 # B N B N trans
1294 2 158 153 154 155 # B N B N cis
1295 2 153 154 155 156 # B N B N cis
1296 1 154 153 158 157 # B N B N trans
1297 2 154 153 158 159 # B N B N cis
1298 2 154 155 156 159 # B N B N cis
1299 1 154 155 156 273 # B N B N trans
1300 2 155 156 159 158 # B N B N cis
1301 1 155 156 159 160 # B N B N trans
1302 1 155 156 273 278 # B N B N trans
1303 2 155 156 273 274 # B N B N cis
1304 1 156 159 158 157 # B N B N trans
1305 1 156 159 160 163 # B N B N trans
1306 2 156 159 160 277 # B N B N cis
1307 2 159 156 273 278 # B N B N cis
1308 1 159 156 273 274 # B N B N trans
1309 2 156 273 278 277 # B N B N cis
1310 1 156 273 278 279 # B N B N trans
1311 2 156 273 274 269 # B N B N cis
1312 1 156 273 274 275 # B N B N trans
1313 1 273 156 159 158 # B N B N trans
1314 2 273 156 159 160 # B N B N cis
1315 1 157 162 161 166 # B N B N trans
1316 2 157 162 163 160 # B N B N cis
1317 1 157 162 163 164 # B N B N trans
1318 2 162 157 158 159 # B N B N cis
1319 2 157 158 159 160 # B N B N cis
1320 1 158 157 162 161 # B N B N trans
1321 2 158 157 162 163 # B N B N cis
1322 2 158 159 160 163 # B N B N cis
1323 1 158 159 160 277 # B N B N trans
1324 2 159 160 163 162 # B N B N cis
1325 1 159 160 163 164 # B N B N trans
1326 1 159 160 277 282 # B N B N trans
1327 2 159 160 277 278 # B N B N cis
1328 1 160 163 162 161 # B N B N trans
1329 1 160 163 164 167 # B N B N trans
1330 2 160 163 164 281 # B N B N cis
1331 2 163 160 277 282 # B N B N cis
1332 1 163 160 277 278 # B N B N trans
1333 2 160 277 282 281 # B N B N cis
1334 1 160 277 282 283 # B N B N trans
1335 2 160 277 278 273 # B N B N cis
1336 1 160 277 278 279 # B N B N trans
1337 1 277 160 163 162 # B N B N trans
1338 2 277 160 163 164 # B N B N cis
1339 1 161 166 165 170 # B N B N trans
1340 2 161 166 167 164 # B N B N cis
1341 1 161 166 167 168 # B N B N trans
1342 2 166 161 162 163 # B N B N cis
1343 2 161 162 163 164 # B N B N cis
1344 1 162 161 166 165 # B N B N trans
1345 2 162 161 166 167 # B N B N cis
1346 2 162 163 164 167 # B N B N cis
1347 1 162 163 164 281 # B N B N trans
1348 2 163 164 167 166 # B N B N cis
1349 1 163 164 167 168 # B N B N trans
1350 1 163 164 281 286 # B N B N trans
1351 2 163 164 281 282 # B N B N cis
1352 1 164 167 166 165 # B N B N trans
1353 1 164 167 168 171 # B N B N trans
1354 2 164 167 168 285 # B N B N cis
1355 2 167 164 281 286 # B N B N cis
1356 1 167 164 281 282 # B N B N trans
1357 2 164 281 286 285 # B N B N cis
1358 1 164 281 286 287 # B N B N trans
1359 2 164 281 282 277 # B N B N cis
1360 1 164 281 282 283 # B N B N trans
1361 1 281 164 167 166 # B N B N trans
1362 2 281 164 167 168 # B N B N cis
1363 1 165 170 169 174 # B N B N trans
1364 2 165 170 171 168 # B N B N cis
1365 1 165 170 171 172 # B N B N trans
1366 2 170 165 166 167 # B N B N cis
1367 2 165 166 167 168 # B N B N cis
1368 1 166 165 170 169 # B N B N trans
1369 2 166 165 170 171 # B N B N cis
1370 2 166 167 168 171 # B N B N cis
1371 1 166 167 168 285 # B N B N trans
1372 2 167 168 171 170 # B N B N cis
1373 1 167 168 171 172 # B N B N trans
1374 1 167 168 285 290 # B N B N trans
1375 2 167 168 285 286 # B N B N cis
1376 1 168 171 170 169 # B N B N trans
1377 1 168 171 172 175 # B N B N trans
1378 2 168 171 172 289 # B N B N cis
1379 2 171 168 285 290 # B N B N cis
1380 1 171 168 285 286 # B N B N trans
1381 2 168 285 290 289 # B N B N cis
1382 1 168 285 290 291 # B N B N trans
1383 2 168 285 286 281 # B N B N cis
1384 1 168 285 286 287 # B N B N trans
1385 1 285 168 171 170 # B N B N trans
1386 2 285 168 171 172 # B N B N cis
1387 1 169 174 173 178 # B N B N trans
1388 2 169 174 175 172 # B N B N cis
1389 1 169 174 175 176 # B N B N trans
1390 2 174 169 170 171 # B N B N cis
1391 2 169 170 171 172 # B N B N cis
1392 1 170 169 174 173 # B N B N trans
1393 2 170 169 174 175 # B N B N cis
1394 2 170 171 172 175 # B N B N cis
1395 1 170 171 172 289 # B N B N trans
1396 2 171 172 175 174 # B N B N cis
1397 1 171 172 175 176 # B N B N trans
1398 1 171 172 289 294 # B N B N trans
1399 2 171 172 289 290 # B N B N cis
1400 1 172 175 174 173 # B N B N trans
1401 1 172 175 176 179 # B N B N trans
1402 2 172 175 176 293 # B N B N cis
1403 2 175 172 289 294 # B N B N cis
1404 1 175 172 289 290 # B N B N trans
1405 2 172 289 294 293 # B N B N cis
1406 1 172 289 294 295 # B N B N trans
1407 2 172 289 290 285 # B N B N cis
1408 1 172 289 290 291 # B N B N trans
1409 1 289 172 175 174 # B N B N trans
1410 2 289 172 175 176 # B N B N cis
1411 1 173 178 177 182 # B N B N trans
1412 2 173 178 179 176 # B N B N cis
1413 1 173 178 179 180 # B N B N trans
1414 2 178 173 174 175 # B N B N cis
1415 2 173 174 175 176 # B N B N cis
1416 1 174 173 178 177 # B N B N trans
1417 2 174 173 178 179 # B N B N cis
1418 2 174 175 176 179 # B N B N cis
1419 1 174 175 176 293 # B N B N trans
1420 2 175 176 179 178 # B N B N cis
1421 1 175 176 179 180 # B N B N trans
1422 1 175 176 293 298 # B N B N trans
1423 2 175 176 293 294 # B N B N cis
1424 1 176 179 178 177 # B N B N trans
1425 1 176 179 180 183 # B N B N trans
1426 2 176 179 180 297 # B N B N cis
1427 2 179 176 293 298 # B N B N cis
1428 1 179 176 293 294 # B N B N trans
1429 2 176 293 298 297 # B N B N cis
1430 1 176 293 298 299 # B N B N trans
1431 2 176 293 294 289 # B N B N cis
1432 1 176 293 294 295 # B N B N trans
1433 1 293 176 179 178 # B N B N trans
1434 2 293 176 179 180 # B N B N cis
1435 1 177 182 181 186 # B N B N trans
1436 2 177 182 183 180 # B N B N cis
1437 1 177 182 183 184 # B N B N trans
1438 2 182 177 178 179 # B N B N cis
1439 2 177 178 179 180 # B N B N cis
1440 1 178 177 182 181 # B N B N trans
1441 2 178 177 182 183 # B N B N cis
1442 2 178 179 180 183 # B N B N cis
1443 1 178 179 180 297 # B N B N trans
1444 2 179 180 183 182 # B N B N cis
1445 1 179 180 183 184 # B N B N trans
1446 1 179 180 297 302 # B N B N trans
1447 2 179 180 297 298 # B N B N cis
1448 1 180 183 182 181 # B N B N trans
1449 1 180 183 184 187 # B N B N trans
1450 2 180 183 184 301 # B N B N cis
1451 2 183 180 297 302 # B N B N cis
1452 1 183 180 297 298 # B N B N trans
1453 2 180 297 302 301 # B N B N cis
1454 1 180 297 302 303 # B N B N trans
1455 2 180 297 298 293 # B N B N cis
1456 1 180 297 298 299 # B N B N trans
1457 1 297 180 183 182 # B N B N trans
1458 2 297 180 183 184 # B N B N cis
1459 1 181 186 185 190 # B N B N trans
1460 2 181 186 187 184 # B N B N cis
1461 1 181 186 187 188 # B N B N trans
1462 2 186 181 182 183 # B N B N cis
1463 2 181 182 183 184 # B N B N cis
1464 1 182 181 186 185 # B N B N trans
1465 2 182 181 186 187 # B N B N cis
1466 2 182 183 184 187 # B N B N cis
1467 1 182 183 184 301 # B N B N trans
1468 2 183 184 187 186 # B N B N cis
1469 1 183 184 187 188 # B N B N trans
1470 1 183 184 301 306 # B N B N trans
1471 2 183 184 301 302 # B N B N cis
1472 1 184 187 186 185 # B N B N trans
1473 1 184 187 188 191 # B N B N trans
1474 2 184 187 188 305 # B N B N cis
1475 2 187 184 301 306 # B N B N cis
1476 1 187 184 301 302 # B N B N trans
1477 2 184 301 306 305 # B N B N cis
1478 1 184 301 306 307 # B N B N trans
1479 2 184 301 302 297 # B N B N cis
1480 1 184 301 302 303 # B N B N trans
1481 1 301 184 187 186 # B N B N trans
1482 2 301 184 187 188 # B N B N cis
1483 1 185 190 189 194 # B N B N trans
1484 2 185 190 191 188 # B N B N cis
1485 1 185 190 191 192 # B N B N trans
1486 2 190 185 186 187 # B N B N cis
1487 2 185 186 187 188 # B N B N cis
1488 1 186 185 190 189 # B N B N trans
1489 2 186 185 190 191 # B N B N cis
1490 2 186 187 188 191 # B N B N cis
1491 1 186 187 188 305 # B N B N trans
1492 2 187 188 191 190 # B N B N cis
1493 1 187 188 191 192 # B N B N trans
1494 1 187 188 305 310 # B N B N trans
1495 2 187 188 305 306 # B N B N cis
1496 1 188 191 190 189 # B N B N trans
1497 1 188 191 192 195 # B N B N trans
1498 2 188 191 192 309 # B N B N cis
1499 2 191 188 305 310 # B N B N cis
1500 1 191 188 305 306 # B N B N trans
1501 2 188 305 310 309 # B N B N cis
1502 1 188 305 310 311 # B N B N trans
1503 2 188 305 306 301 # B N B N cis
1504 1 188 305 306 307 # B N B N trans
1505 1 305 188 191 190 # B N B N trans
1506 2 305 188 191 192 # B N B N cis
1507 1 189 194 193 198 # B N B N trans
1508 2 189 194 195 192 # B N B N cis
1509 1 189 194 195 196 # B N B N trans
1510 2 194 189 190 191 # B N B N cis
1511 2 189 190 191 192 # B N B N cis
1512 1 190 189 194 193 # B N B N trans
1513 2 190 189 194 195 # B N B N cis
1514 2 190 191 192 195 # B N B N cis
1515 1 190 191 192 309 # B N B N trans
1516 2 191 192 195 194 # B N B N cis
1517 1 191 192 195 196 # B N B N trans
1518 1 191 192 309 314 # B N B N trans
1519 2 191 192 309 310 # B N B N cis
1520 1 192 195 194 193 # B N B N trans
1521 1 192 195 196 199 # B N B N trans
1522 2 192 195 196 313 # B N B N cis
1523 2 195 192 309 314 # B N B N cis
1524 1 195 192 309 310 # B N B N trans
1525 2 192 309 314 313 # B N B N cis
1526 1 192 309 314 315 # B N B N trans
1527 2 192 309 310 305 # B N B N cis
1528 1 192 309 310 311 # B N B N trans
1529 1 309 192 195 194 # B N B N trans
1530 2 309 192 195 196 # B N B N cis
1531 1 193 198 197 202 # B N B N trans
1532 2 193 198 199 196 # B N B N cis
1533 1 193 198 199 200 # B N B N trans
1534 2 198 193 194 195 # B N B N cis
1535 2 193 194 195 196 # B N B N cis
1536 1 194 193 198 197 # B N B N trans
1537 2 194 193 198 199 # B N B N cis
1538 2 194 195 196 199 # B N B N cis
1539 1 194 195 196 313 # B N B N trans
1540 2 195 196 199 198 # B N B N cis
1541 1 195 196 199 200 # B N B N trans
1542 1 195 196 313 318 # B N B N trans
1543 2 195 196 313 314 # B N B N cis
1544 1 196 199 198 197 # B N B N trans
1545 1 196 199 200 203 # B N B N trans
1546 2 196 199 200 317 # B N B N cis
1547 2 199 196 313 318 # B N B N cis
1548 1 199 196 313 314 # B N B N trans
1549 2 196 313 318 317 # B N B N cis
1550 1 196 313 318 319 # B N B N trans
1551 2 196 313 314 309 # B N B N cis
1552 1 196 313 314 315 # B N B N trans
1553 1 313 196 199 198 # B N B N trans
1554 2 313 196 199 200 # B N B N cis
1555 1 197 202 201 206 # B N B N trans
1556 2 197 202 203 200 # B N B N cis
1557 1 197 202 203 204 # B N B N trans
1558 2 202 197 198 199 # B N B N cis
1559 2 197 198 199 200 # B N B N cis
1560 1 198 197 202 201 # B N B N trans
1561 2 198 197 202 203 # B N B N cis
1562 2 198 199 200 203 # B N B N cis
1563 1 198 199 200 317 # B N B N trans
1564 2 199 200 203 202 # B N B N cis
1565 1 199 200 203 204 # B N B N trans
1566 1 199 200 317 322 # B N B N trans
1567 2 199 200 317 318 # B N B N cis
1568 1 200 203 202 201 # B N B N trans
1569 1 200 203 204 207 # B N B N trans
1570 2 200 203 204 321 # B N B N cis
1571 2 203 200 317 322 # B N B N cis
1572 1 203 200 317 318 # B N B N trans
1573 2 200 317 322 321 # B N B N cis
1574 1 200 317 322 323 # B N B N trans
1575 2 200 317 318 313 # B N B N cis
1576 1 200 317 318 319 # B N B N trans
1577 1 317 200 203 202 # B N B N trans
1578 2 317 200 203 204 # B N B N cis
1579 1 201 206 205 210 # B N B N trans
1580 2 201 206 207 204 # B N B N cis
1581 1 201 206 207 208 # B N B N trans
1582 2 206 201 202 203 # B N B N cis
1583 2 201 202 203 204 # B N B N cis
1584 1 202 201 206 205 # B N B N trans
1585 2 202 201 206 207 # B N B N cis
1586 2 202 203 204 207 # B N B N cis
1587 1 202 203 204 321 # B N B N trans
1588 2 203 204 207 206 # B N B N cis
1589 1 203 204 207 208 # B N B N trans
1590 1 203 204 321 326 # B N B N trans
1591 2 203 204 321 322 # B N B N cis
1592 1 204 207 206 205 # B N B N trans
1593 1 204 207 208 211 # B N B N trans
1594 2 204 207 208 325 # B N B N cis
1595 2 207 204 321 326 # B N B N cis
1596 1 207 204 321 322 # B N B N trans
1597 2 204 321 326 325 # B N B N cis
1598 1 204 321 326 327 # B N B N trans
1599 2 204 321 322 317 # B N B N cis
1600 1 204 321 322 323 # B N B N trans
1601 1 321 204 207 206 # B N B N trans
1602 2 321 204 207 208 # B N B N cis
1603 1 205 210 209 214 # B N B N trans
1604 2 205 210 211 208 # B N B N cis
1605 1 205 210 211 212 # B N B N trans
1606 2 210 205 206 207 # B N B N cis
1607 2 205 206 207 208 # B N B N cis
1608 1 206 205 210 209 # B N B N trans
1609 2 206 205 210 211 # B N B N cis
1610 2 206 207 208 211 # B N B N cis
1611 1 206 207 208 325 # B N B N trans
1612 2 207 208 211 210 # B N B N cis
1613 1 207 208 211 212 # B N B N trans
1614 1 207 208 325 330 # B N B N trans
1615 2 207 208 325 326 # B N B N cis
1616 1 208 211 210 209 # B N B N trans
1617 1 208 211 212 215 # B N B N trans
1618 2 208 211 212 329 # B N B N cis
1619 2 211 208 325 330 # B N B N cis
1620 1 211 208 325 326 # B N B N trans
1621 2 208 325 330 329 # B N B N cis
1622 1 208 325 330 331 # B N B N trans
1623 2 208 325 326 321 # B N B N cis
1624 1 208 325 326 327 # B N B N trans
1625 1 325 208 211 210 # B N B N trans
1626 2 325 208 211 212 # B N B N cis
1627 1 209 214 213 218 # B N B N trans
1628 2 209 214 215 212 # B N B N cis
1629 1 209 214 215 216 # B N B N trans
1630 2 214 209 210 211 # B N B N cis
1631 2 209 210 211 212 # B N B N cis
1632 1 210 209 214 213 # B N B N trans
1633 2 210 209 214 215 # B N B N cis
1634 2 210 211 212 215 # B N B N cis
1635 1 210 211 212 329 # B N B N trans
1636 2 211 212 215 214 # B N B N cis
1637 1 211 212 215 216 # B N B N trans
1638 1 211 212 329 334 # B N B N trans
1639 2 211 212 329 330 # B N B N cis
1640 1 212 215 214 213 # B N B N trans
1641 1 212 215 216 219 # B N B N trans
1642 2 212 215 216 333 # B N B N cis
1643 2 215 212 329 334 # B N B N cis
1644 1 215 212 329 330 # B N B N trans
1645 2 212 329 334 333 # B N B N cis
1646 1 212 329 334 335 # B N B N trans
1647 2 212 329 330 325 # B N B N cis
1648 1 212 329 330 331 # B N B N trans
1649 1 329 212 215 214 # B N B N trans
1650 2 329 212 215 216 # B N B N cis
1651 1 213 218 217 222 # B N B N trans
1652 2 213 218 219 216 # B N B N cis
1653 1 213 218 219 220 # B N B N trans
1654 2 218 213 214 215 # B N B N cis
1655 2 213 214 215 216 # B N B N cis
1656 1 214 213 218 217 # B N B N trans
1657 2 214 213 218 219 # B N B N cis
1658 2 214 215 216 219 # B N B N cis
1659 1 214 215 216 333 # B N B N trans
1660 2 215 216 219 218 # B N B N cis
1661 1 215 216 219 220 # B N B N trans
1662 1 215 216 333 338 # B N B N trans
1663 2 215 216 333 334 # B N B N cis
1664 1 216 219 218 217 # B N B N trans
1665 1 216 219 220 223 # B N B N trans
1666 2 216 219 220 337 # B N B N cis
1667 2 219 216 333 338 # B N B N cis
1668 1 219 216 333 334 # B N B N trans
1669 2 216 333 338 337 # B N B N cis
1670 1 216 333 338 339 # B N B N trans
1671 2 216 333 334 329 # B N B N cis
1672 1 216 333 334 335 # B N B N trans
1673 1 333 216 219 218 # B N B N trans
1674 2 333 216 219 220 # B N B N cis
1675 1 217 222 221 226 # B N B N trans
1676 2 217 222 223 220 # B N B N cis
1677 1 217 222 223 224 # B N B N trans
1678 2 222 217 218 219 # B N B N cis
1679 2 217 218 219 220 # B N B N cis
1680 1 218 217 222 221 # B N B N trans
1681 2 218 217 222 223 # B N B N cis
1682 2 218 219 220 223 # B N B N cis
1683 1 218 219 220 337 # B N B N trans
1684 2 219 220 223 222 # B N B N cis
1685 1 219 220 223 224 # B N B N trans
1686 1 219 220 337 342 # B N B N trans
1687 2 219 220 337 338 # B N B N cis
1688 1 220 223 222 221 # B N B N trans
1689 1 220 223 224 227 # B N B N trans
1690 2 220 223 224 341 # B N B N cis
1691 2 223 220 337 342 # B N B N cis
1692 1 223 220 337 338 # B N B N trans
1693 2 220 337 342 341 # B N B N cis
1694 1 220 337 342 343 # B N B N trans
1695 2 220 337 338 333 # B N B N cis
1696 1 220 337 338 339 # B N B N trans
1697 1 337 220 223 222 # B N B N trans
1698 2 337 220 223 224 # B N B N cis
1699 1 221 226 225 230 # B N B N trans
1700 2 221 226 227 224 # B N B N cis
1701 1 221 226 227 228 # B N B N trans
1702 2 226 221 222 223 # B N B N cis
1703 2 221 222 223 224 # B N B N cis
1704 1 222 221 226 225 # B N B N trans
1705 2 222 221 226 227 # B N B N cis
1706 2 222 223 224 227 # B N B N cis
1707 1 222 223 224 341 # B N B N trans
1708 2 223 224 227 226 # B N B N cis
1709 1 223 224 227 228 # B N B N trans
1710 1 223 224 341 346 # B N B N trans
1711 2 223 224 341 342 # B N B N cis
1712 1 224 227 226 225 # B N B N trans
1713 1 224 227 228 231 # B N B N trans
1714 2 224 227 228 345 # B N B N cis
1715 2 227 224 341 346 # B N B N cis
1716 1 227 224 341 342 # B N B N trans
1717 2 224 341 346 345 # B N B N cis
1718 1 224 341 346 347 # B N B N trans
1719 2 224 341 342 337 # B N B N cis
1720 1 224 341 342 343 # B N B N trans
1721 1 341 224 227 226 # B N B N trans
1722 2 341 224 227 228 # B N B N cis
1723 1 225 230 229 234 # B N B N trans
1724 2 225 230 231 228 # B N B N cis
1725 1 225 230 231 232 # B N B N trans
1726 2 230 225 226 227 # B N B N cis
1727 2 225 226 227 228 # B N B N cis
1728 1 226 225 230 229 # B N B N trans
1729 2 226 225 230 231 # B N B N cis
1730 2 226 227 228 231 # B N B N cis
1731 1 226 227 228 345 # B N B N trans
1732 2 227 228 231 230 # B N B N cis
1733 1 227 228 231 232 # B N B N trans
1734 1 227 228 345 350 # B N B N trans
1735 2 227 228 345 346 # B N B N cis
1736 1 228 231 230 229 # B N B N trans
1737 1 228 231 232 235 # B N B N trans
1738 2 228 231 232 349 # B N B N cis
1739 2 231 228 345 350 # B N B N cis
1740 1 231 228 345 346 # B N B N trans
1741 2 228 345 350 349 # B N B N cis
1742 1 228 345 350 351 # B N B N trans
1743 2 228 345 346 341 # B N B N cis
1744 1 228 345 346 347 # B N B N trans
1745 1 345 228 231 230 # B N B N trans
1746 2 345 228 231 232 # B N B N cis
1747 1 229 234 233 238 # B N B N trans
1748 2 229 234 235 232 # B N B N cis
1749 1 229 234 235 236 # B N B N trans
1750 2 234 229 230 231 # B N B N cis
1751 2 229 230 231 232 # B N B N cis
1752 1 230 229 234 233 # B N B N trans
1753 2 230 229 234 235 # B N B N cis
1754 2 230 231 232 235 # B N B N cis
1755 1 230 231 232 349 # B N B N trans
1756 2 231 232 235 234 # B N B N cis
1757 1 231 232 235 236 # B N B N trans
1758 1 231 232 349 354 # B N B N trans
1759 2 231 232 349 350 # B N B N cis
1760 1 232 235 234 233 # B N B N trans
1761 1 232 235 236 239 # B N B N trans
1762 2 232 235 236 353 # B N B N cis
1763 2 235 232 349 354 # B N B N cis
1764 1 235 232 349 350 # B N B N trans
1765 2 232 349 354 353 # B N B N cis
1766 1 232 349 354 355 # B N B N trans
1767 2 232 349 350 345 # B N B N cis
1768 1 232 349 350 351 # B N B N trans
1769 1 349 232 235 234 # B N B N trans
1770 2 349 232 235 236 # B N B N cis
1771 2 233 238 239 236 # B N B N cis
1772 1 233 238 239 240 # B N B N trans
1773 2 238 233 234 235 # B N B N cis
1774 2 233 234 235 236 # B N B N cis
1775 1 234 233 238 237 # B N B N trans
1776 2 234 233 238 239 # B N B N cis
1777 2 234 235 236 239 # B N B N cis
1778 1 234 235 236 353 # B N B N trans
1779 2 235 236 239 238 # B N B N cis
1780 1 235 236 239 240 # B N B N trans
1781 1 235 236 353 358 # B N B N trans
1782 2 235 236 353 354 # B N B N cis
1783 1 236 239 238 237 # B N B N trans
1784 2 236 239 240 357 # B N B N cis
1785 2 239 236 353 358 # B N B N cis
1786 1 239 236 353 354 # B N B N trans
1787 2 236 353 358 357 # B N B N cis
1788 1 236 353 358 359 # B N B N trans
1789 2 236 353 354 349 # B N B N cis
1790 1 236 353 354 355 # B N B N trans
1791 1 353 236 239 238 # B N B N trans
1792 2 353 236 239 240 # B N B N cis
1793 2 237 238 239 240 # B N B N cis
1794 1 238 239 240 357 # B N B N trans
1795 1 239 240 357 242 # B N B N trans
1796 2 239 240 357 358 # B N B N cis
1797 2 240 357 242 241 # B N B N cis
1798 1 240 357 242 243 # B N B N trans
1799 2 240 357 358 353 # B N B N cis
1800 1 240 357 358 359 # B N B N trans
1801 1 241 246 245 250 # B N B N trans
1802 1 241 246 247 248 # B N B N trans
1803 2 241 246 247 244 # B N B N cis
1804 1 246 241 242 357 # B N B N trans
1805 2 246 241 242 243 # B N B N cis
1806 1 241 242 357 358 # B N B N trans
1807 2 241 242 243 244 # B N B N cis
1808 1 241 242 243 360 # B N B N trans
1809 1 242 241 246 245 # B N B N trans
1810 2 242 241 246 247 # B N B N cis
1811 1 242 357 358 353 # B N B N trans
1812 2 242 357 358 359 # B N B N cis
1813 1 357 242 243 244 # B N B N trans
1814 2 357 242 243 360 # B N B N cis
1815 2 242 243 244 247 # B N B N cis
1816 1 242 243 244 361 # B N B N trans
1817 2 242 243 360 359 # B N B N cis
1818 1 242 243 360 477 # B N B N trans
1819 2 243 242 357 358 # B N B N cis
1820 2 243 244 247 246 # B N B N cis
1821 1 243 244 247 248 # B N B N trans
1822 2 243 244 361 362 # B N B N cis
1823 1 243 244 361 366 # B N B N trans
1824 1 244 243 360 359 # B N B N trans
1825 2 244 243 360 477 # B N B N cis
1826 2 243 360 359 358 # B N B N cis
1827 1 243 360 359 356 # B N B N trans
1828 1 243 360 477 478 # B N B N trans
1829 2 243 360 477 362 # B N B N cis
1830 1 360 243 244 247 # B N B N trans
1831 2 360 243 244 361 # B N B N cis
1832 1 244 247 246 245 # B N B N trans
1833 1 244 247 248 251 # B N B N trans
1834 2 244 247 248 365 # B N B N cis
1835 1 247 244 361 362 # B N B N trans
1836 2 247 244 361 366 # B N B N cis
1837 1 244 361 362 363 # B N B N trans
1838 2 244 361 362 477 # B N B N cis
1839 2 244 361 366 365 # B N B N cis
1840 1 244 361 366 367 # B N B N trans
1841 1 361 244 247 246 # B N B N trans
1842 2 361 244 247 248 # B N B N cis
1843 1 245 250 249 254 # B N B N trans
1844 1 245 250 251 252 # B N B N trans
1845 2 245 250 251 248 # B N B N cis
1846 2 250 245 246 247 # B N B N cis
1847 2 245 246 247 248 # B N B N cis
1848 1 246 245 250 249 # B N B N trans
1849 2 246 245 250 251 # B N B N cis
1850 2 246 247 248 251 # B N B N cis
1851 1 246 247 248 365 # B N B N trans
1852 2 247 248 251 250 # B N B N cis
1853 1 247 248 251 252 # B N B N trans
1854 2 247 248 365 366 # B N B N cis
1855 1 247 248 365 370 # B N B N trans
1856 1 248 251 250 249 # B N B N trans
1857 1 248 251 252 255 # B N B N trans
1858 2 248 251 252 369 # B N B N cis
1859 1 251 248 365 366 # B N B N trans
1860 2 251 248 365 370 # B N B N cis
1861 2 248 365 366 361 # B N B N cis
1862 1 248 365 366 367 # B N B N trans
1863 2 248 365 370 369 # B N B N cis
1864 1 248 365 370 371 # B N B N trans
1865 1 365 248 251 250 # B N B N trans
1866 2 365 248 251 252 # B N B N cis
1867 1 249 254 253 258 # B N B N trans
1868 1 249 254 255 256 # B N B N trans
1869 2 249 254 255 252 # B N B N cis
1870 2 254 249 250 251 # B N B N cis
1871 2 249 250 251 252 # B N B N cis
1872 1 250 249 254 253 # B N B N trans
1873 2 250 249 254 255 # B N B N cis
1874 2 250 251 252 255 # B N B N cis
1875 1 250 251 252 369 # B N B N trans
1876 2 251 252 255 254 # B N B N cis
1877 1 251 252 255 256 # B N B N trans
1878 2 251 252 369 370 # B N B N cis
1879 1 251 252 369 374 # B N B N trans
1880 1 252 255 254 253 # B N B N trans
1881 1 252 255 256 259 # B N B N trans
1882 2 252 255 256 373 # B N B N cis
1883 1 255 252 369 370 # B N B N trans
1884 2 255 252 369 374 # B N B N cis
1885 2 252 369 370 365 # B N B N cis
1886 1 252 369 370 371 # B N B N trans
1887 2 252 369 374 373 # B N B N cis
1888 1 252 369 374 375 # B N B N trans
1889 1 369 252 255 254 # B N B N trans
1890 2 369 252 255 256 # B N B N cis
1891 1 253 258 257 262 # B N B N trans
1892 1 253 258 259 260 # B N B N trans
1893 2 253 258 259 256 # B N B N cis
1894 2 258 253 254 255 # B N B N cis
1895 2 253 254 255 256 # B N B N cis
1896 1 254 253 258 257 # B N B N trans
1897 2 254 253 258 259 # B N B N cis
1898 2 254 255 256 259 # B N B N cis
1899 1 254 255 256 373 # B N B N trans
1900 2 255 256 259 258 # B N B N cis
1901 1 255 256 259 260 # B N B N trans
1902 2 255 256 373 374 # B N B N cis
1903 1 255 256 373 378 # B N B N trans
1904 1 256 259 258 257 # B N B N trans
1905 1 256 259 260 263 # B N B N trans
1906 2 256 259 260 377 # B N B N cis
1907 1 259 256 373 374 # B N B N trans
1908 2 259 256 373 378 # B N B N cis
1909 2 256 373 374 369 # B N B N cis
1910 1 256 373 374 375 # B N B N trans
1911 2 256 373 378 377 # B N B N cis
1912 1 256 373 378 379 # B N B N trans
1913 1 373 256 259 258 # B N B N trans
1914 2 373 256 259 260 # B N B N cis
1915 1 257 262 261 266 # B N B N trans
1916 1 257 262 263 264 # B N B N trans
1917 2 257 262 263 260 # B N B N cis
1918 2 262 257 258 259 # B N B N cis
1919 2 257 258 259 260 # B N B N cis
1920 1 258 257 262 261 # B N B N trans
1921 2 258 257 262 263 # B N B N cis
1922 2 258 259 260 263 # B N B N cis
1923 1 258 259 260 377 # B N B N trans
1924 2 259 260 263 262 # B N B N cis
1925 1 259 260 263 264 # B N B N trans
1926 2 259 260 377 378 # B N B N cis
1927 1 259 260 377 382 # B N B N trans
1928 1 260 263 262 261 # B N B N trans
1929 1 260 263 264 267 # B N B N trans
1930 2 260 263 264 381 # B N B N cis
1931 1 263 260 377 378 # B N B N trans
1932 2 263 260 377 382 # B N B N cis
1933 2 260 377 378 373 # B N B N cis
1934 1 260 377 378 379 # B N B N trans
1935 2 260 377 382 381 # B N B N cis
1936 1 260 377 382 383 # B N B N trans
1937 1 377 260 263 262 # B N B N trans
1938 2 377 260 263 264 # B N B N cis
1939 1 261 266 265 270 # B N B N trans
1940 1 261 266 267 268 # B N B N trans
1941 2 261 266 267 264 # B N B N cis
1942 2 266 261 262 263 # B N B N cis
1943 2 261 262 263 264 # B N B N cis
1944 1 262 261 266 265 # B N B N trans
1945 2 262 261 266 267 # B N B N cis
1946 2 262 263 264 267 # B N B N cis
1947 1 262 263 264 381 # B N B N trans
1948 2 263 264 267 266 # B N B N cis
1949 1 263 264 267 268 # B N B N trans
1950 2 263 264 381 382 # B N B N cis
1951 1 263 264 381 386 # B N B N trans
1952 1 264 267 266 265 # B N B N trans
1953 1 264 267 268 271 # B N B N trans
1954 2 264 267 268 385 # B N B N cis
1955 1 267 264 381 382 # B N B N trans
1956 2 267 264 381 386 # B N B N cis
1957 2 264 381 382 377 # B N B N cis
1958 1 264 381 382 383 # B N B N trans
1959 2 264 381 386 385 # B N B N cis
1960 1 264 381 386 387 # B N B N trans
1961 1 381 264 267 266 # B N B N trans
1962 2 381 264 267 268 # B N B N cis
1963 1 265 270 269 274 # B N B N trans
1964 1 265 270 271 272 # B N B N trans
1965 2 265 270 271 268 # B N B N cis
1966 2 270 265 266 267 # B N B N cis
1967 2 265 266 267 268 # B N B N cis
1968 1 266 265 270 269 # B N B N trans
1969 2 266 265 270 271 # B N B N cis
1970 2 266 267 268 271 # B N B N cis
1971 1 266 267 268 385 # B N B N trans
1972 2 267 268 271 270 # B N B N cis
1973 1 267 268 271 272 # B N B N trans
1974 2 267 268 385 386 # B N B N cis
1975 1 267 268 385 390 # B N B N trans
1976 1 268 271 270 269 # B N B N trans
1977 1 268 271 272 275 # B N B N trans
1978 2 268 271 272 389 # B N B N cis
1979 1 271 268 385 386 # B N B N trans
1980 2 271 268 385 390 # B N B N cis
1981 2 268 385 386 381 # B N B N cis
1982 1 268 385 386 387 # B N B N trans
1983 2 268 385 390 389 # B N B N cis
1984 1 268 385 390 391 # B N B N trans
1985 1 385 268 271 270 # B N B N trans
1986 2 385 268 271 272 # B N B N cis
1987 1 269 274 273 278 # B N B N trans
1988 1 269 274 275 276 # B N B N trans
1989 2 269 274 275 272 # B N B N cis
1990 2 274 269 270 271 # B N B N cis
1991 2 269 270 271 272 # B N B N cis
1992 1 270 269 274 273 # B N B N trans
1993 2 270 269 274 275 # B N B N cis
1994 2 270 271 272 275 # B N B N cis
1995 1 270 271 272 389 # B N B N trans
1996 2 271 272 275 274 # B N B N cis
1997 1 271 272 275 276 # B N B N trans
1998 2 271 272 389 390 # B N B N cis
1999 1 271 272 389 394 # B N B N trans
2000 1 272 275 274 273 # B N B N trans
2001 1 272 275 276 279 # B N B N trans
2002 2 272 275 276 393 # B N B N cis
2003 1 275 272 389 390 # B N B N trans
2004 2 275 272 389 394 # B N B N cis
2005 2 272 389 390 385 # B N B N cis
2006 1 272 389 390 391 # B N B N trans
2007 2 272 389 394 393 # B N B N cis
2008 1 272 389 394 395 # B N B N trans
2009 1 389 272 275 274 # B N B N trans
2010 2 389 272 275 276 # B N B N cis
2011 1 273 278 277 282 # B N B N trans
2012 1 273 278 279 280 # B N B N trans
2013 2 273 278 279 276 # B N B N cis
2014 2 278 273 274 275 # B N B N cis
2015 2 273 274 275 276 # B N B N cis
2016 1 274 273 278 277 # B N B N trans
2017 2 274 273 278 279 # B N B N cis
2018 2 274 275 276 279 # B N B N cis
2019 1 274 275 276 393 # B N B N trans
2020 2 275 276 279 278 # B N B N cis
2021 1 275 276 279 280 # B N B N trans
2022 2 275 276 393 394 # B N B N cis
2023 1 275 276 393 398 # B N B N trans
2024 1 276 279 278 277 # B N B N trans
2025 1 276 279 280 283 # B N B N trans
2026 2 276 279 280 397 # B N B N cis
2027 1 279 276 393 394 # B N B N trans
2028 2 279 276 393 398 # B N B N cis
2029 2 276 393 394 389 # B N B N cis
2030 1 276 393 394 395 # B N B N trans
2031 2 276 393 398 397 # B N B N cis
2032 1 276 393 398 399 # B N B N trans
2033 1 393 276 279 278 # B N B N trans
2034 2 393 276 279 280 # B N B N cis
2035 1 277 282 281 286 # B N B N trans
2036 1 277 282 283 284 # B N B N trans
2037 2 277 282 283 280 # B N B N cis
2038 2 282 277 278 279 # B N B N cis
2039 2 277 278 279 280 # B N B N cis
2040 1 278 277 282 281 # B N B N trans
2041 2 278 277 282 283 # B N B N cis
2042 2 278 279 280 283 # B N B N cis
2043 1 278 279 280 397 # B N B N trans
2044 2 279 280 283 282 # B N B N cis
2045 1 279 280 283 284 # B N B N trans
2046 2 279 280 397 398 # B N B N cis
2047 1 279 280 397 402 # B N B N trans
2048 1 280 283 282 281 # B N B N trans
2049 1 280 283 284 287 # B N B N trans
2050 2 280 283 284 401 # B N B N cis
2051 1 283 280 397 398 # B N B N trans
2052 2 283 280 397 402 # B N B N cis
2053 2 280 397 398 393 # B N B N cis
2054 1 280 397 398 399 # B N B N trans
2055 2 280 397 402 401 # B N B N cis
2056 1 280 397 402 403 # B N B N trans
2057 1 397 280 283 282 # B N B N trans
2058 2 397 280 283 284 # B N B N cis
2059 1 281 286 285 290 # B N B N trans
2060 1 281 286 287 288 # B N B N trans
2061 2 281 286 287 284 # B N B N cis
2062 2 286 281 282 283 # B N B N cis
2063 2 281 282 283 284 # B N B N cis
2064 1 282 281 286 285 # B N B N trans
2065 2 282 281 286 287 # B N B N cis
2066 2 282 283 284 287 # B N B N cis
2067 1 282 283 284 401 # B N B N trans
2068 2 283 284 287 286 # B N B N cis
2069 1 283 284 287 288 # B N B N trans
2070 2 283 284 401 402 # B N B N cis
2071 1 283 284 401 406 # B N B N trans
2072 1 284 287 286 285 # B N B N trans
2073 1 284 287 288 291 # B N B N trans
2074 2 284 287 288 405 # B N B N cis
2075 1 287 284 401 402 # B N B N trans
2076 2 287 284 401 406 # B N B N cis
2077 2 284 401 402 397 # B N B N cis
2078 1 284 401 402 403 # B N B N trans
2079 2 284 401 406 405 # B N B N cis
2080 1 284 401 406 407 # B N B N trans
2081 1 401 284 287 286 # B N B N trans
2082 2 401 284 287 288 # B N B N cis
2083 1 285 290 289 294 # B N B N trans
2084 1 285 290 291 292 # B N B N trans
2085 2 285 290 291 288 # B N B N cis
2086 2 290 285 286 287 # B N B N cis
2087 2 285 286 287 288 # B N B N cis
2088 1 286 285 290 289 # B N B N trans
2089 2 286 285 290 291 # B N B N cis
2090 2 286 287 288 291 # B N B N cis
2091 1 286 287 288 405 # B N B N trans
2092 2 287 288 291 290 # B N B N cis
2093 1 287 288 291 292 # B N B N trans
2094 2 287 288 405 406 # B N B N cis
2095 1 287 288 405 410 # B N B N trans
2096 1 288 291 290 289 # B N B N trans
2097 1 288 291 292 295 # B N B N trans
2098 2 288 291 292 409 # B N B N cis
2099 1 291 288 405 406 # B N B N trans
2100 2 291 288 405 410 # B N B N cis
2101 2 288 405 406 401 # B N B N cis
2102 1 288 405 406 407 # B N B N trans
2103 2 288 405 410 409 # B N B N cis
2104 1 288 405 410 411 # B N B N trans
2105 1 405 288 291 290 # B N B N trans
2106 2 405 288 291 292 # B N B N cis
2107 1 289 294 293 298 # B N B N trans
2108 1 289 294 295 296 # B N B N trans
2109 2 289 294 295 292 # B N B N cis
2110 2 294 289 290 291 # B N B N cis
2111 2 289 290 291 292 # B N B N cis
2112 1 290 289 294 293 # B N B N trans
2113 2 290 289 294 295 # B N B N cis
2114 2 290 291 292 295 # B N B N cis
2115 1 290 291 292 409 # B N B N trans
2116 2 291 292 295 294 # B N B N cis
2117 1 291 292 295 296 # B N B N trans
2118 2 291 292 409 410 # B N B N cis
2119 1 291 292 409 414 # B N B N trans
2120 1 292 295 294 293 # B N B N trans
2121 1 292 295 296 299 # B N B N trans
2122 2 292 295 296 413 # B N B N cis
2123 1 295 292 409 410 # B N B N trans
2124 2 295 292 409 414 # B N B N cis
2125 2 292 409 410 405 # B N B N cis
2126 1 292 409 410 411 # B N B N trans
2127 2 292 409 414 413 # B N B N cis
2128 1 292 409 414 415 # B N B N trans
2129 1 409 292 295 294 # B N B N trans
2130 2 409 292 295 296 # B N B N cis
2131 1 293 298 297 302 # B N B N trans
2132 1 293 298 299 300 # B N B N trans
2133 2 293 298 299 296 # B N B N cis
2134 2 298 293 294 295 # B N B N cis
2135 2 293 294 295 296 # B N B N cis
2136 1 294 293 298 297 # B N B N trans
2137 2 294 293 298 299 # B N B N cis
2138 2 294 295 296 299 # B N B N cis
2139 1 294 295 296 413 # B N B N trans
2140 2 295 296 299 298 # B N B N cis
2141 1 295 296 299 300 # B N B N trans
2142 2 295 296 413 414 # B N B N cis
2143 1 295 296 413 418 # B N B N trans
2144 1 296 299 298 297 # B N B N trans
2145 1 296 299 300 303 # B N B N trans
2146 2 296 299 300 417 # B N B N cis
2147 1 299 296 413 414 # B N B N trans
2148 2 299 296 413 418 # B N B N cis
2149 2 296 413 414 409 # B N B N cis
2150 1 296 413 414 415 # B N B N trans
2151 2 296 413 418 417 # B N B N cis
2152 1 296 413 418 419 # B N B N trans
2153 1 413 296 299 298 # B N B N trans
2154 2 413 296 299 300 # B N B N cis
2155 1 297 302 301 306 # B N B N trans
2156 1 297 302 303 304 # B N B N trans
2157 2 297 302 303 300 # B N B N cis
2158 2 302 297 298 299 # B N B N cis
2159 2 297 298 299 300 # B N B N cis
2160 1 298 297 302 301 # B N B N trans
2161 2 298 297 302 303 # B N B N cis
2162 2 298 299 300 303 # B N B N cis
2163 1 298 299 300 417 # B N B N trans
2164 2 299 300 303 302 # B N B N cis
2165 1 299 300 303 304 # B N B N trans
2166 2 299 300 417 418 # B N B N cis
2167 1 299 300 417 422 # B N B N trans
2168 1 300 303 302 301 # B N B N trans
2169 1 300 303 304 307 # B N B N trans
2170 2 300 303 304 421 # B N B N cis
2171 1 303 300 417 418 # B N B N trans
2172 2 303 300 417 422 # B N B N cis
2173 2 300 417 418 413 # B N B N cis
2174 1 300 417 418 419 # B N B N trans
2175 2 300 417 422 421 # B N B N cis
2176 1 300 417 422 423 # B N B N trans
2177 1 417 300 303 302 # B N B N trans
2178 2 417 300 303 304 # B N B N cis
2179 1 301 306 305 310 # B N B N trans
2180 1 301 306 307 308 # B N B N trans
2181 2 301 306 307 304 # B N B N cis
2182 2 306 301 302 303 # B N B N cis
2183 2 301 302 303 304 # B N B N cis
2184 1 302 301 306 305 # B N B N trans
2185 2 302 301 306 307 # B N B N cis
2186 2 302 303 304 307 # B N B N cis
2187 1 302 303 304 421 # B N B N trans
2188 2 303 304 307 306 # B N B N cis
2189 1 303 304 307 308 # B N B N trans
2190 2 303 304 421 422 # B N B N cis
2191 1 303 304 421 426 # B N B N trans
2192 1 304 307 306 305 # B N B N trans
2193 1 304 307 308 311 # B N B N trans
2194 2 304 307 308 425 # B N B N cis
2195 1 307 304 421 422 # B N B N trans
2196 2 307 304 421 426 # B N B N cis
2197 2 304 421 422 417 # B N B N cis
2198 1 304 421 422 423 # B N B N trans
2199 2 304 421 426 425 # B N B N cis
2200 1 304 421 426 427 # B N B N trans
2201 1 421 304 307 306 # B N B N trans
2202 2 421 304 307 308 # B N B N cis
2203 1 305 310 309 314 # B N B N trans
2204 1 305 310 311 312 # B N B N trans
2205 2 305 310 311 308 # B N B N cis
2206 2 310 305 306 307 # B N B N cis
2207 2 305 306 307 308 # B N B N cis
2208 1 306 305 310 309 # B N B N trans
2209 2 306 305 310 311 # B N B N cis
2210 2 306 307 308 311 # B N B N cis
2211 1 306 307 308 425 # B N B N trans
2212 2 307 308 311 310 # B N B N cis
2213 1 307 308 311 312 # B N B N trans
2214 2 307 308 425 426 # B N B N cis
2215 1 307 308 425 430 # B N B N trans
2216 1 308 311 310 309 # B N B N trans
2217 1 308 311 312 315 # B N B N trans
2218 2 308 311 312 429 # B N B N cis
2219 1 311 308 425 426 # B N B N trans
2220 2 311 308 425 430 # B N B N cis
2221 2 308 425 426 421 # B N B N cis
2222 1 308 425 426 427 # B N B N trans
2223 2 308 425 430 429 # B N B N cis
2224 1 308 425 430 431 # B N B N trans
2225 1 425 308 311 310 # B N B N trans
2226 2 425 308 311 312 # B N B N cis
2227 1 309 314 313 318 # B N B N trans
2228 1 309 314 315 316 # B N B N trans
2229 2 309 314 315 312 # B N B N cis
2230 2 314 309 310 311 # B N B N cis
2231 2 309 310 311 312 # B N B N cis
2232 1 310 309 314 313 # B N B N trans
2233 2 310 309 314 315 # B N B N cis
2234 2 310 311 312 315 # B N B N cis
2235 1 310 311 312 429 # B N B N trans
2236 2 311 312 315 314 # B N B N cis
2237 1 311 312 315 316 # B N B N trans
2238 2 311 312 429 430 # B N B N cis
2239 1 311 312 429 434 # B N B N trans
2240 1 312 315 314 313 # B N B N trans
2241 1 312 315 316 319 # B N B N trans
2242 2 312 315 316 433 # B N B N cis
2243 1 315 312 429 430 # B N B N trans
2244 2 315 312 429 434 # B N B N cis
2245 2 312 429 430 425 # B N B N cis
2246 1 312 429 430 431 # B N B N trans
2247 2 312 429 434 433 # B N B N cis
2248 1 312 429 434 435 # B N B N trans
2249 1 429 312 315 314 # B N B N trans
2250 2 429 312 315 316 # B N B N cis
2251 1 313 318 317 322 # B N B N trans
2252 1 313 318 319 320 # B N B N trans
2253 2 313 318 319 316 # B N B N cis
2254 2 318 313 314 315 # B N B N cis
2255 2 313 314 315 316 # B N B N cis
2256 1 314 313 318 317 # B N B N trans
2257 2 314 313 318 319 # B N B N cis
2258 2 314 315 316 319 # B N B N cis
2259 1 314 315 316 433 # B N B N trans
2260 2 315 316 319 318 # B N B N cis
2261 1 315 316 319 320 # B N B N trans
2262 2 315 316 433 434 # B N B N cis
2263 1 315 316 433 438 # B N B N trans
2264 1 316 319 318 317 # B N B N trans
2265 1 316 319 320 323 # B N B N trans
2266 2 316 319 320 437 # B N B N cis
2267 1 319 316 433 434 # B N B N trans
2268 2 319 316 433 438 # B N B N cis
2269 2 316 433 434 429 # B N B N cis
2270 1 316 433 434 435 # B N B N trans
2271 2 316 433 438 437 # B N B N cis
2272 1 316 433 438 439 # B N B N trans
2273 1 433 316 319 318 # B N B N trans
2274 2 433 316 319 320 # B N B N cis
2275 1 317 322 321 326 # B N B N trans
2276 1 317 322 323 324 # B N B N trans
2277 2 317 322 323 320 # B N B N cis
2278 2 322 317 318 319 # B N B N cis
2279 2 317 318 319 320 # B N B N cis
2280 1 318 317 322 321 # B N B N trans
2281 2 318 317 322 323 # B N B N cis
2282 2 318 319 320 323 # B N B N cis
2283 1 318 319 320 437 # B N B N trans
2284 2 319 320 323 322 # B N B N cis
2285 1 319 320 323 324 # B N B N trans
2286 2 319 320 437 438 # B N B N cis
2287 1 319 320 437 442 # B N B N trans
2288 1 320 323 322 321 # B N B N trans
2289 1 320 323 324 327 # B N B N trans
2290 2 320 323 324 441 # B N B N cis
2291 1 323 320 437 438 # B N B N trans
2292 2 323 320 437 442 # B N B N cis
2293 2 320 437 438 433 # B N B N cis
2294 1 320 437 438 439 # B N B N trans
2295 2 320 437 442 441 # B N B N cis
2296 1 320 437 442 443 # B N B N trans
2297 1 437 320 323 322 # B N B N trans
2298 2 437 320 323 324 # B N B N cis
2299 1 321 326 325 330 # B N B N trans
2300 1 321 326 327 328 # B N B N trans
2301 2 321 326 327 324 # B N B N cis
2302 2 326 321 322 323 # B N B N cis
2303 2 321 322 323 324 # B N B N cis
2304 1 322 321 326 325 # B N B N trans
2305 2 322 321 326 327 # B N B N cis
2306 2 322 323 324 327 # B N B N cis
2307 1 322 323 324 441 # B N B N trans
2308 2 323 324 327 326 # B N B N cis
2309 1 323 324 327 328 # B N B N trans
2310 2 323 324 441 442 # B N B N cis
2311 1 323 324 441 446 # B N B N trans
2312 1 324 327 326 325 # B N B N trans
2313 1 324 327 328 331 # B N B N trans
2314 2 324 327 328 445 # B N B N cis
2315 1 327 324 441 442 # B N B N trans
2316 2 327 324 441 446 # B N B N cis
2317 2 324 441 442 437 # B N B N cis
2318 1 324 441 442 443 # B N B N trans
2319 2 324 441 446 445 # B N B N cis
2320 1 324 441 446 447 # B N B N trans
2321 1 441 324 327 326 # B N B N trans
2322 2 441 324 327 328 # B N B N cis
2323 1 325 330 329 334 # B N B N trans
2324 1 325 330 331 332 # B N B N trans
2325 2 325 330 331 328 # B N B N cis
2326 2 330 325 326 327 # B N B N cis
2327 2 325 326 327 328 # B N B N cis
2328 1 326 325 330 329 # B N B N trans
2329 2 326 325 330 331 # B N B N cis
2330 2 326 327 328 331 # B N B N cis
2331 1 326 327 328 445 # B N B N trans
2332 2 327 328 331 330 # B N B N cis
2333 1 327 328 331 332 # B N B N trans
2334 2 327 328 445 446 # B N B N cis
2335 1 327 328 445 450 # B N B N trans
2336 1 328 331 330 329 # B N B N trans
2337 1 328 331 332 335 # B N B N trans
2338 2 328 331 332 449 # B N B N cis
2339 1 331 328 445 446 # B N B N trans
2340 2 331 328 445 450 # B N B N cis
2341 2 328 445 446 441 # B N B N cis
2342 1 328 445 446 447 # B N B N trans
2343 2 328 445 450 449 # B N B N cis
2344 1 328 445 450 451 # B N B N trans
2345 1 445 328 331 330 # B N B N trans
2346 2 445 328 331 332 # B N B N cis
2347 1 329 334 333 338 # B N B N trans
2348 1 329 334 335 336 # B N B N trans
2349 2 329 334 335 332 # B N B N cis
2350 2 334 329 330 331 # B N B N cis
2351 2 329 330 331 332 # B N B N cis
2352 1 330 329 334 333 # B N B N trans
2353 2 330 329 334 335 # B N B N cis
2354 2 330 331 332 335 # B N B N cis
2355 1 330 331 332 449 # B N B N trans
2356 2 331 332 335 334 # B N B N cis
2357 1 331 332 335 336 # B N B N trans
2358 2 331 332 449 450 # B N B N cis
2359 1 331 332 449 454 # B N B N trans
2360 1 332 335 334 333 # B N B N trans
2361 1 332 335 336 339 # B N B N trans
2362 2 332 335 336 453 # B N B N cis
2363 1 335 332 449 450 # B N B N trans
2364 2 335 332 449 454 # B N B N cis
2365 2 332 449 450 445 # B N B N cis
2366 1 332 449 450 451 # B N B N trans
2367 2 332 449 454 453 # B N B N cis
2368 1 332 449 454 455 # B N B N trans
2369 1 449 332 335 334 # B N B N trans
2370 2 449 332 335 336 # B N B N cis
2371 1 333 338 337 342 # B N B N trans
2372 1 333 338 339 340 # B N B N trans
2373 2 333 338 339 336 # B N B N cis
2374 2 338 333 334 335 # B N B N cis
2375 2 333 334 335 336 # B N B N cis
2376 1 334 333 338 337 # B N B N trans
2377 2 334 333 338 339 # B N B N cis
2378 2 334 335 336 339 # B N B N cis
2379 1 334 335 336 453 # B N B N trans
2380 2 335 336 339 338 # B N B N cis
2381 1 335 336 339 340 # B N B N trans
2382 2 335 336 453 454 # B N B N cis
2383 1 335 336 453 458 # B N B N trans
2384 1 336 339 338 337 # B N B N trans
2385 1 336 339 340 343 # B N B N trans
2386 2 336 339 340 457 # B N B N cis
2387 1 339 336 453 454 # B N B N trans
2388 2 339 336 453 458 # B N B N cis
2389 2 336 453 454 449 # B N B N cis
2390 1 336 453 454 455 # B N B N trans
2391 2 336 453 458 457 # B N B N cis
2392 1 336 453 458 459 # B N B N trans
2393 1 453 336 339 338 # B N B N trans
2394 2 453 336 339 340 # B N B N cis
2395 1 337 342 341 346 # B N B N trans
2396 1 337 342 343 344 # B N B N trans
2397 2 337 342 343 340 # B N B N cis
2398 2 342 337 338 339 # B N B N cis
2399 2 337 338 339 340 # B N B N cis
2400 1 338 337 342 341 # B N B N trans
2401 2 338 337 342 343 # B N B N cis
2402 2 338 339 340 343 # B N B N cis
2403 1 338 339 340 457 # B N B N trans
2404 2 339 340 343 342 # B N B N cis
2405 1 339 340 343 344 # B N B N trans
2406 2 339 340 457 458 # B N B N cis
2407 1 339 340 457 462 # B N B N trans
2408 1 340 343 342 341 # B N B N trans
2409 1 340 343 344 347 # B N B N trans
2410 2 340 343 344 461 # B N B N cis
2411 1 343 340 457 458 # B N B N trans
2412 2 343 340 457 462 # B N B N cis
2413 2 340 457 458 453 # B N B N cis
2414 1 340 457 458 459 # B N B N trans
2415 2 340 457 462 461 # B N B N cis
2416 1 340 457 462 463 # B N B N trans
2417 1 457 340 343 342 # B N B N trans
2418 2 457 340 343 344 # B N B N cis
2419 1 341 346 345 350 # B N B N trans
2420 1 341 346 347 348 # B N B N trans
2421 2 341 346 347 344 # B N B N cis
2422 2 346 341 342 343 # B N B N cis
2423 2 341 342 343 344 # B N B N cis
2424 1 342 341 346 345 # B N B N trans
2425 2 342 341 346 347 # B N B N cis
2426 2 342 343 344 347 # B N B N cis
2427 1 342 343 344 461 # B N B N trans
2428 2 343 344 347 346 # B N B N cis
2429 1 343 344 347 348 # B N B N trans
2430 2 343 344 461 462 # B N B N cis
2431 1 343 344 461 466 # B N B N trans
2432 1 344 347 346 345 # B N B N trans
2433 1 344 347 348 351 # B N B N trans
2434 2 344 347 348 465 # B N B N cis
2435 1 347 344 461 462 # B N B N trans
2436 2 347 344 461 466 # B N B N cis
2437 2 344 461 462 457 # B N B N cis
2438 1 344 461 462 463 # B N B N trans
2439 2 344 461 466 465 # B N B N cis
2440 1 344 461 466 467 # B N B N trans
2441 1 461 344 347 346 # B N B N trans
2442 2 461 344 347 348 # B N B N cis
2443 1 345 350 349 354 # B N B N trans
2444 1 345 350 351 352 # B N B N trans
2445 2 345 350 351 348 # B N B N cis
2446 2 350 345 346 347 # B N B N cis
2447 2 345 346 347 348 # B N B N cis
2448 1 346 345 350 349 # B N B N trans
2449 2 346 345 350 351 # B N B N cis
2450 2 346 347 348 351 # B N B N cis
2451 1 346 347 348 465 # B N B N trans
2452 2 347 348 351 350 # B N B N cis
2453 1 347 348 351 352 # B N B N trans
2454 2 347 348 465 466 # B N B N cis
2455 1 347 348 465 470 # B N B N trans
2456 1 348 351 350 349 # B N B N trans
2457 1 348 351 352 355 # B N B N trans
2458 2 348 351 352 469 # B N B N cis
2459 1 351 348 465 466 # B N B N trans
2460 2 351 348 465 470 # B N B N cis
2461 2 348 465 466 461 # B N B N cis
2462 1 348 465 466 467 # B N B N trans
2463 2 348 465 470 469 # B N B N cis
2464 1 348 465 470 471 # B N B N trans
2465 1 465 348 351 350 # B N B N trans
2466 2 465 348 351 352 # B N B N cis
2467 1 349 354 353 358 # B N B N trans
2468 1 349 354 355 356 # B N B N trans
2469 2 349 354 355 352 # B N B N cis
2470 2 354 349 350 351 # B N B N cis
2471 2 349 350 351 352 # B N B N cis
2472 1 350 349 354 353 # B N B N trans
2473 2 350 349 354 355 # B N B N cis
2474 2 350 351 352 355 # B N B N cis
2475 1 350 351 352 469 # B N B N trans
2476 2 351 352 355 354 # B N B N cis
2477 1 351 352 355 356 # B N B N trans
2478 2 351 352 469 470 # B N B N cis
2479 1 351 352 469 474 # B N B N trans
2480 1 352 355 354 353 # B N B N trans
2481 1 352 355 356 359 # B N B N trans
2482 2 352 355 356 473 # B N B N cis
2483 1 355 352 469 470 # B N B N trans
2484 2 355 352 469 474 # B N B N cis
2485 2 352 469 470 465 # B N B N cis
2486 1 352 469 470 471 # B N B N trans
2487 2 352 469 474 473 # B N B N cis
2488 1 352 469 474 475 # B N B N trans
2489 1 469 352 355 354 # B N B N trans
2490 2 469 352 355 356 # B N B N cis
2491 1 353 358 359 360 # B N B N trans
2492 2 353 358 359 356 # B N B N cis
2493 2 358 353 354 355 # B N B N cis
2494 2 353 354 355 356 # B N B N cis
2495 1 354 353 358 357 # B N B N trans
2496 2 354 353 358 359 # B N B N cis
2497 2 354 355 356 359 # B N B N cis
2498 1 354 355 356 473 # B N B N trans
2499 2 355 356 359 358 # B N B N cis
2500 1 355 356 359 360 # B N B N trans
2501 2 355 356 473 474 # B N B N cis
2502 1 355 356 473 478 # B N B N trans
2503 1 356 359 358 357 # B N B N trans
2504 2 356 359 360 477 # B N B N cis
2505 1 359 356 473 474 # B N B N trans
2506 2 359 356 473 478 # B N B N cis
2507 2 356 473 474 469 # B N B N cis
2508 1 356 473 474 475 # B N B N trans
2509 2 356 473 478 477 # B N B N cis
2510 1 356 473 478 479 # B N B N trans
2511 1 473 356 359 358 # B N B N trans
2512 2 473 356 359 360 # B N B N cis
2513 2 357 358 359 360 # B N B N cis
2514 1 358 359 360 477 # B N B N trans
2515 2 359 360 477 478 # B N B N cis
2516 1 359 360 477 362 # B N B N trans
2517 2 360 477 478 473 # B N B N cis
2518 1 360 477 478 479 # B N B N trans
2519 2 360 477 362 361 # B N B N cis
2520 1 360 477 362 363 # B N B N trans
2521 2 361 362 363 364 # B N B N cis
2522 1 361 362 363 480 # B N B N trans
2523 1 361 362 477 478 # B N B N trans
2524 1 362 361 366 365 # B N B N trans
2525 2 362 361 366 367 # B N B N cis
2526 1 361 366 365 370 # B N B N trans
2527 1 361 366 367 368 # B N B N trans
2528 2 361 366 367 364 # B N B N cis
2529 2 366 361 362 363 # B N B N cis
2530 1 366 361 362 477 # B N B N trans
2531 2 362 363 364 367 # B N B N cis
2532 1 362 363 364 481 # B N B N trans
2533 2 362 363 480 479 # B N B N cis
2534 1 362 363 480 597 # B N B N trans
2535 2 363 362 477 478 # B N B N cis
2536 1 362 477 478 473 # B N B N trans
2537 2 362 477 478 479 # B N B N cis
2538 1 477 362 363 364 # B N B N trans
2539 2 477 362 363 480 # B N B N cis
2540 2 363 364 367 366 # B N B N cis
2541 1 363 364 367 368 # B N B N trans
2542 2 363 364 481 482 # B N B N cis
2543 1 363 364 481 486 # B N B N trans
2544 1 364 363 480 479 # B N B N trans
2545 2 364 363 480 597 # B N B N cis
2546 2 363 480 479 478 # B N B N cis
2547 1 363 480 479 476 # B N B N trans
2548 1 363 480 597 598 # B N B N trans
2549 2 363 480 597 482 # B N B N cis
2550 1 480 363 364 367 # B N B N trans
2551 2 480 363 364 481 # B N B N cis
2552 1 364 367 366 365 # B N B N trans
2553 1 364 367 368 371 # B N B N trans
2554 2 364 367 368 485 # B N B N cis
2555 1 367 364 481 482 # B N B N trans
2556 2 367 364 481 486 # B N B N cis
2557 1 364 481 482 483 # B N B N trans
2558 2 364 481 482 597 # B N B N cis
2559 2 364 481 486 485 # B N B N cis
2560 1 364 481 486 487 # B N B N trans
2561 1 481 364 367 366 # B N B N trans
2562 2 481 364 367 368 # B N B N cis
2563 2 365 366 367 368 # B N B N cis
2564 1 366 365 370 369 # B N B N trans
2565 2 366 365 370 371 # B N B N cis
2566 1 365 370 369 374 # B N B N trans
2567 1 365 370 371 372 # B N B N trans
2568 2 365 370 371 368 # B N B N cis
2569 2 370 365 366 367 # B N B N cis
2570 2 366 367 368 371 # B N B N cis
2571 1 366 367 368 485 # B N B N trans
2572 2 367 368 371 370 # B N B N cis
2573 1 367 368 371 372 # B N B N trans
2574 2 367 368 485 486 # B N B N cis
2575 1 367 368 485 490 # B N B N trans
2576 1 368 371 370 369 # B N B N trans
2577 1 368 371 372 375 # B N B N trans
2578 2 368 371 372 489 # B N B N cis
2579 1 371 368 485 486 # B N B N trans
2580 2 371 368 485 490 # B N B N cis
2581 2 368 485 486 481 # B N B N cis
2582 1 368 485 486 487 # B N B N trans
2583 2 368 485 490 489 # B N B N cis
2584 1 368 485 490 491 # B N B N trans
2585 1 485 368 371 370 # B N B N trans
2586 2 485 368 371 372 # B N B N cis
2587 2 369 370 371 372 # B N B N cis
2588 1 370 369 374 373 # B N B N trans
2589 2 370 369 374 375 # B N B N cis
2590 1 369 374 373 378 # B N B N trans
2591 1 369 374 375 376 # B N B N trans
2592 2 369 374 375 372 # B N B N cis
2593 2 374 369 370 371 # B N B N cis
2594 2 370 371 372 375 # B N B N cis
2595 1 370 371 372 489 # B N B N trans
2596 2 371 372 375 374 # B N B N cis
2597 1 371 372 375 376 # B N B N trans
2598 2 371 372 489 490 # B N B N cis
2599 1 371 372 489 494 # B N B N trans
2600 1 372 375 374 373 # B N B N trans
2601 1 372 375 376 379 # B N B N trans
2602 2 372 375 376 493 # B N B N cis
2603 1 375 372 489 490 # B N B N trans
2604 2 375 372 489 494 # B N B N cis
2605 2 372 489 490 485 # B N B N cis
2606 1 372 489 490 491 # B N B N trans
2607 2 372 489 494 493 # B N B N cis
2608 1 372 489 494 495 # B N B N trans
2609 1 489 372 375 374 # B N B N trans
2610 2 489 372 375 376 # B N B N cis
2611 2 373 374 375 376 # B N B N cis
2612 1 374 373 378 377 # B N B N trans
2613 2 374 373 378 379 # B N B N cis
2614 1 373 378 377 382 # B N B N trans
2615 1 373 378 379 380 # B N B N trans
2616 2 373 378 379 376 # B N B N cis
2617 2 378 373 374 375 # B N B N cis
2618 2 374 375 376 379 # B N B N cis
2619 1 374 375 376 493 # B N B N trans
2620 2 375 376 379 378 # B N B N cis
2621 1 375 376 379 380 # B N B N trans
2622 2 375 376 493 494 # B N B N cis
2623 1 375 376 493 498 # B N B N trans
2624 1 376 379 378 377 # B N B N trans
2625 1 376 379 380 383 # B N B N trans
2626 2 376 379 380 497 # B N B N cis
2627 1 379 376 493 494 # B N B N trans
2628 2 379 376 493 498 # B N B N cis
2629 2 376 493 494 489 # B N B N cis
2630 1 376 493 494 495 # B N B N trans
2631 2 376 493 498 497 # B N B N cis
2632 1 376 493 498 499 # B N B N trans
2633 1 493 376 379 378 # B N B N trans
2634 2 493 376 379 380 # B N B N cis
2635 2 377 378 379 380 # B N B N cis
2636 1 378 377 382 381 # B N B N trans
2637 2 378 377 382 383 # B N B N cis
2638 1 377 382 381 386 # B N B N trans
2639 1 377 382 383 384 # B N B N trans
2640 2 377 382 383 380 # B N B N cis
2641 2 382 377 378 379 # B N B N cis
2642 2 378 379 380 383 # B N B N cis
2643 1 378 379 380 497 # B N B N trans
2644 2 379 380 383 382 # B N B N cis
2645 1 379 380 383 384 # B N B N trans
2646 2 379 380 497 498 # B N B N cis
2647 1 379 380 497 502 # B N B N trans
2648 1 380 383 382 381 # B N B N trans
2649 1 380 383 384 387 # B N B N trans
2650 2 380 383 384 501 # B N B N cis
2651 1 383 380 497 498 # B N B N trans
2652 2 383 380 497 502 # B N B N cis
2653 2 380 497 498 493 # B N B N cis
2654 1 380 497 498 499 # B N B N trans
2655 2 380 497 502 501 # B N B N cis
2656 1 380 497 502 503 # B N B N trans
2657 1 497 380 383 382 # B N B N trans
2658 2 497 380 383 384 # B N B N cis
2659 2 381 382 383 384 # B N B N cis
2660 1 382 381 386 385 # B N B N trans
2661 2 382 381 386 387 # B N B N cis
2662 1 381 386 385 390 # B N B N trans
2663 1 381 386 387 388 # B N B N trans
2664 2 381 386 387 384 # B N B N cis
2665 2 386 381 382 383 # B N B N cis
2666 2 382 383 384 387 # B N B N cis
2667 1 382 383 384 501 # B N B N trans
2668 2 383 384 387 386 # B N B N cis
2669 1 383 384 387 388 # B N B N trans
2670 2 383 384 501 502 # B N B N cis
2671 1 383 384 501 506 # B N B N trans
2672 1 384 387 386 385 # B N B N trans
2673 1 384 387 388 391 # B N B N trans
2674 2 384 387 388 505 # B N B N cis
2675 1 387 384 501 502 # B N B N trans
2676 2 387 384 501 506 # B N B N cis
2677 2 384 501 502 497 # B N B N cis
2678 1 384 501 502 503 # B N B N trans
2679 2 384 501 506 505 # B N B N cis
2680 1 384 501 506 507 # B N B N trans
2681 1 501 384 387 386 # B N B N trans
2682 2 501 384 387 388 # B N B N cis
2683 2 385 386 387 388 # B N B N cis
2684 1 386 385 390 389 # B N B N trans
2685 2 386 385 390 391 # B N B N cis
2686 1 385 390 389 394 # B N B N trans
2687 1 385 390 391 392 # B N B N trans
2688 2 385 390 391 388 # B N B N cis
2689 2 390 385 386 387 # B N B N cis
2690 2 386 387 388 391 # B N B N cis
2691 1 386 387 388 505 # B N B N trans
2692 2 387 388 391 390 # B N B N cis
2693 1 387 388 391 392 # B N B N trans
2694 2 387 388 505 506 # B N B N cis
2695 1 387 388 505 510 # B N B N trans
2696 1 388 391 390 389 # B N B N trans
2697 1 388 391 392 395 # B N B N trans
2698 2 388 391 392 509 # B N B N cis
2699 1 391 388 505 506 # B N B N trans
2700 2 391 388 505 510 # B N B N cis
2701 2 388 505 506 501 # B N B N cis
2702 1 388 505 506 507 # B N B N trans
2703 2 388 505 510 509 # B N B N cis
2704 1 388 505 510 511 # B N B N trans
2705 1 505 388 391 390 # B N B N trans
2706 2 505 388 391 392 # B N B N cis
2707 2 389 390 391 392 # B N B N cis
2708 1 390 389 394 393 # B N B N trans
2709 2 390 389 394 395 # B N B N cis
2710 1 389 394 393 398 # B N B N trans
2711 1 389 394 395 396 # B N B N trans
2712 2 389 394 395 392 # B N B N cis
2713 2 394 389 390 391 # B N B N cis
2714 2 390 391 392 395 # B N B N cis
2715 1 390 391 392 509 # B N B N trans
2716 2 391 392 395 394 # B N B N cis
2717 1 391 392 395 396 # B N B N trans
2718 2 391 392 509 510 # B N B N cis
2719 1 391 392 509 514 # B N B N trans
2720 1 392 395 394 393 # B N B N trans
2721 1 392 395 396 399 # B N B N trans
2722 2 392 395 396 513 # B N B N cis
2723 1 395 392 509 510 # B N B N trans
2724 2 395 392 509 514 # B N B N cis
2725 2 392 509 510 505 # B N B N cis
2726 1 392 509 510 511 # B N B N trans
2727 2 392 509 514 513 # B N B N cis
2728 1 392 509 514 515 # B N B N trans
2729 1 509 392 395 394 # B N B N trans
2730 2 509 392 395 396 # B N B N cis
2731 2 393 394 395 396 # B N B N cis
2732 1 394 393 398 397 # B N B N trans
2733 2 394 393 398 399 # B N B N cis
2734 1 393 398 397 402 # B N B N trans
2735 1 393 398 399 400 # B N B N trans
2736 2 393 398 399 396 # B N B N cis
2737 2 398 393 394 395 # B N B N cis
2738 2 394 395 396 399 # B N B N cis
2739 1 394 395 396 513 # B N B N trans
2740 2 395 396 399 398 # B N B N cis
2741 1 395 396 399 400 # B N B N trans
2742 2 395 396 513 514 # B N B N cis
2743 1 395 396 513 518 # B N B N trans
2744 1 396 399 398 397 # B N B N trans
2745 1 396 399 400 403 # B N B N trans
2746 2 396 399 400 517 # B N B N cis
2747 1 399 396 513 514 # B N B N trans
2748 2 399 396 513 518 # B N B N cis
2749 2 396 513 514 509 # B N B N cis
2750 1 396 513 514 515 # B N B N trans
2751 2 396 513 518 517 # B N B N cis
2752 1 396 513 518 519 # B N B N trans
2753 1 513 396 399 398 # B N B N trans
2754 2 513 396 399 400 # B N B N cis
2755 2 397 398 399 400 # B N B N cis
2756 1 398 397 402 401 # B N B N trans
2757 2 398 397 402 403 # B N B N cis
2758 1 397 402 401 406 # B N B N trans
2759 1 397 402 403 404 # B N B N trans
2760 2 397 402 403 400 # B N B N cis
2761 2 402 397 398 399 # B N B N cis
2762 2 398 399 400 403 # B N B N cis
2763 1 398 399 400 517 # B N B N trans
2764 2 399 400 403 402 # B N B N cis
2765 1 399 400 403 404 # B N B N trans
2766 2 399 400 517 518 # B N B N cis
2767 1 399 400 517 522 # B N B N trans
2768 1 400 403 402 401 # B N B N trans
2769 1 400 403 404 407 # B N B N trans
2770 2 400 403 404 521 # B N B N cis
2771 1 403 400 517 518 # B N B N trans
2772 2 403 400 517 522 # B N B N cis
2773 2 400 517 518 513 # B N B N cis
2774 1 400 517 518 519 # B N B N trans
2775 2 400 517 522 521 # B N B N cis
2776 1 400 517 522 523 # B N B N trans
2777 1 517 400 403 402 # B N B N trans
2778 2 517 400 403 404 # B N B N cis
2779 2 401 402 403 404 # B N B N cis
2780 1 402 401 406 405 # B N B N trans
2781 2 402 401 406 407 # B N B N cis
2782 1 401 406 405 410 # B N B N trans
2783 1 401 406 407 408 # B N B N trans
2784 2 401 406 407 404 # B N B N cis
2785 2 406 401 402 403 # B N B N cis
2786 2 402 403 404 407 # B N B N cis
2787 1 402 403 404 521 # B N B N trans
2788 2 403 404 407 406 # B N B N cis
2789 1 403 404 407 408 # B N B N trans
2790 2 403 404 521 522 # B N B N cis
2791 1 403 404 521 526 # B N B N trans
2792 1 404 407 406 405 # B N B N trans
2793 1 404 407 408 411 # B N B N trans
2794 2 404 407 408 525 # B N B N cis
2795 1 407 404 521 522 # B N B N trans
2796 2 407 404 521 526 # B N B N cis
2797 2 404 521 522 517 # B N B N cis
2798 1 404 521 522 523 # B N B N trans
2799 2 404 521 526 525 # B N B N cis
2800 1 404 521 526 527 # B N B N trans
2801 1 521 404 407 406 # B N B N trans
2802 2 521 404 407 408 # B N B N cis
2803 2 405 406 407 408 # B N B N cis
2804 1 406 405 410 409 # B N B N trans
2805 2 406 405 410 411 # B N B N cis
2806 1 405 410 409 414 # B N B N trans
2807 1 405 410 411 412 # B N B N trans
2808 2 405 410 411 408 # B N B N cis
2809 2 410 405 406 407 # B N B N cis
2810 2 406 407 408 411 # B N B N cis
2811 1 406 407 408 525 # B N B N trans
2812 2 407 408 411 410 # B N B N cis
2813 1 407 408 411 412 # B N B N trans
2814 2 407 408 525 526 # B N B N cis
2815 1 407 408 525 530 # B N B N trans
2816 1 408 411 410 409 # B N B N trans
2817 1 408 411 412 415 # B N B N trans
2818 2 408 411 412 529 # B N B N cis
2819 1 411 408 525 526 # B N B N trans
2820 2 411 408 525 530 # B N B N cis
2821 2 408 525 526 521 # B N B N cis
2822 1 408 525 526 527 # B N B N trans
2823 2 408 525 530 529 # B N B N cis
2824 1 408 525 530 531 # B N B N trans
2825 1 525 408 411 410 # B N B N trans
2826 2 525 408 411 412 # B N B N cis
2827 2 409 410 411 412 # B N B N cis
2828 1 410 409 414 413 # B N B N trans
2829 2 410 409 414 415 # B N B N cis
2830 1 409 414 413 418 # B N B N trans
2831 1 409 414 415 416 # B N B N trans
2832 2 409 414 415 412 # B N B N cis
2833 2 414 409 410 411 # B N B N cis
2834 2 410 411 412 415 # B N B N cis
2835 1 410 411 412 529 # B N B N trans
2836 2 411 412 415 414 # B N B N cis
2837 1 411 412 415 416 # B N B N trans
2838 2 411 412 529 530 # B N B N cis
2839 1 411 412 529 534 # B N B N trans
2840 1 412 415 414 413 # B N B N trans
2841 1 412 415 416 419 # B N B N trans
2842 2 412 415 416 533 # B N B N cis
2843 1 415 412 529 530 # B N B N trans
2844 2 415 412 529 534 # B N B N cis
2845 2 412 529 530 525 # B N B N cis
2846 1 412 529 530 531 # B N B N trans
2847 2 412 529 534 533 # B N B N cis
2848 1 412 529 534 535 # B N B N trans
2849 1 529 412 415 414 # B N B N trans
2850 2 529 412 415 416 # B N B N cis
2851 2 413 414 415 416 # B N B N cis
2852 1 414 413 418 417 # B N B N trans
2853 2 414 413 418 419 # B N B N cis
2854 1 413 418 417 422 # B N B N trans
2855 1 413 418 419 420 # B N B N trans
2856 2 413 418 419 416 # B N B N cis
2857 2 418 413 414 415 # B N B N cis
2858 2 414 415 416 419 # B N B N cis
2859 1 414 415 416 533 # B N B N trans
2860 2 415 416 419 418 # B N B N cis
2861 1 415 416 419 420 # B N B N trans
2862 2 415 416 533 534 # B N B N cis
2863 1 415 416 533 538 # B N B N trans
2864 1 416 419 418 417 # B N B N trans
2865 1 416 419 420 423 # B N B N trans
2866 2 416 419 420 537 # B N B N cis
2867 1 419 416 533 534 # B N B N trans
2868 2 419 416 533 538 # B N B N cis
2869 2 416 533 534 529 # B N B N cis
2870 1 416 533 534 535 # B N B N trans
2871 2 416 533 538 537 # B N B N cis
2872 1 416 533 538 539 # B N B N trans
2873 1 533 416 419 418 # B N B N trans
2874 2 533 416 419 420 # B N B N cis
2875 2 417 418 419 420 # B N B N cis
2876 1 418 417 422 421 # B N B N trans
2877 2 418 417 422 423 # B N B N cis
2878 1 417 422 421 426 # B N B N trans
2879 1 417 422 423 424 # B N B N trans
2880 2 417 422 423 420 # B N B N cis
2881 2 422 417 418 419 # B N B N cis
2882 2 418 419 420 423 # B N B N cis
2883 1 418 419 420 537 # B N B N trans
2884 2 419 420 423 422 # B N B N cis
2885 1 419 420 423 424 # B N B N trans
2886 2 419 420 537 538 # B N B N cis
2887 1 419 420 537 542 # B N B N trans
2888 1 420 423 422 421 # B N B N trans
2889 1 420 423 424 427 # B N B N trans
2890 2 420 423 424 541 # B N B N cis
2891 1 423 420 537 538 # B N B N trans
2892 2 423 420 537 542 # B N B N cis
2893 2 420 537 538 533 # B N B N cis
2894 1 420 537 538 539 # B N B N trans
2895 2 420 537 542 541 # B N B N cis
2896 1 420 537 542 543 # B N B N trans
2897 1 537 420 423 422 # B N B N trans
2898 2 537 420 423 424 # B N B N cis
2899 2 421 422 423 424 # B N B N cis
2900 1 422 421 426 425 # B N B N trans
2901 2 422 421 426 427 # B N B N cis
2902 1 421 426 425 430 # B N B N trans
2903 1 421 426 427 428 # B N B N trans
2904 2 421 426 427 424 # B N B N cis
2905 2 426 421 422 423 # B N B N cis
2906 2 422 423 424 427 # B N B N cis
2907 1 422 423 424 541 # B N B N trans
2908 2 423 424 427 426 # B N B N cis
2909 1 423 424 427 428 # B N B N trans
2910 2 423 424 541 542 # B N B N cis
2911 1 423 424 541 546 # B N B N trans
2912 1 424 427 426 425 # B N B N trans
2913 1 424 427 428 431 # B N B N trans
2914 2 424 427 428 545 # B N B N cis
2915 1 427 424 541 542 # B N B N trans
2916 2 427 424 541 546 # B N B N cis
2917 2 424 541 542 537 # B N B N cis
2918 1 424 541 542 543 # B N B N trans
2919 2 424 541 546 545 # B N B N cis
2920 1 424 541 546 547 # B N B N trans
2921 1 541 424 427 426 # B N B N trans
2922 2 541 424 427 428 # B N B N cis
2923 2 425 426 427 428 # B N B N cis
2924 1 426 425 430 429 # B N B N trans
2925 2 426 425 430 431 # B N B N cis
2926 1 425 430 429 434 # B N B N trans
2927 1 425 430 431 432 # B N B N trans
2928 2 425 430 431 428 # B N B N cis
2929 2 430 425 426 427 # B N B N cis
2930 2 426 427 428 431 # B N B N cis
2931 1 426 427 428 545 # B N B N trans
2932 2 427 428 431 430 # B N B N cis
2933 1 427 428 431 432 # B N B N trans
2934 2 427 428 545 546 # B N B N cis
2935 1 427 428 545 550 # B N B N trans
2936 1 428 431 430 429 # B N B N trans
2937 1 428 431 432 435 # B N B N trans
2938 2 428 431 432 549 # B N B N cis
2939 1 431 428 545 546 # B N B N trans
2940 2 431 428 545 550 # B N B N cis
2941 2 428 545 546 541 # B N B N cis
2942 1 428 545 546 547 # B N B N trans
2943 2 428 545 550 549 # B N B N cis
2944 1 428 545 550 551 # B N B N trans
2945 1 545 428 431 430 # B N B N trans
2946 2 545 428 431 432 # B N B N cis
2947 2 429 430 431 432 # B N B N cis
2948 1 430 429 434 433 # B N B N trans
2949 2 430 429 434 435 # B N B N cis
2950 1 429 434 433 438 # B N B N trans
2951 1 429 434 435 436 # B N B N trans
2952 2 429 434 435 432 # B N B N cis
2953 2 434 429 430 431 # B N B N cis
2954 2 430 431 432 435 # B N B N cis
2955 1 430 431 432 549 # B N B N trans
2956 2 431 432 435 434 # B N B N cis
2957 1 431 432 435 436 # B N B N trans
2958 2 431 432 549 550 # B N B N cis
2959 1 431 432 549 554 # B N B N trans
2960 1 432 435 434 433 # B N B N trans
2961 1 432 435 436 439 # B N B N trans
2962 2 432 435 436 553 # B N B N cis
2963 1 435 432 549 550 # B N B N trans
2964 2 435 432 549 554 # B N B N cis
2965 2 432 549 550 545 # B N B N cis
2966 1 432 549 550 551 # B N B N trans
2967 2 432 549 554 553 # B N B N cis
2968 1 432 549 554 555 # B N B N trans
2969 1 549 432 435 434 # B N B N trans
2970 2 549 432 435 436 # B N B N cis
2971 2 433 434 435 436 # B N B N cis
2972 1 434 433 438 437 # B N B N trans
2973 2 434 433 438 439 # B N B N cis
2974 1 433 438 437 442 # B N B N trans
2975 1 433 438 439 440 # B N B N trans
2976 2 433 438 439 436 # B N B N cis
2977 2 438 433 434 435 # B N B N cis
2978 2 434 435 436 439 # B N B N cis
2979 1 434 435 436 553 # B N B N trans
2980 2 435 436 439 438 # B N B N cis
2981 1 435 436 439 440 # B N B N trans
2982 2 435 436 553 554 # B N B N cis
2983 1 435 436 553 558 # B N B N trans
2984 1 436 439 438 437 # B N B N trans
2985 1 436 439 440 443 # B N B N trans
2986 2 436 439 440 557 # B N B N cis
2987 1 439 436 553 554 # B N B N trans
2988 2 439 436 553 558 # B N B N cis
2989 2 436 553 554 549 # B N B N cis
2990 1 436 553 554 555 # B N B N trans
2991 2 436 553 558 557 # B N B N cis
2992 1 436 553 558 559 # B N B N trans
2993 1 553 436 439 438 # B N B N trans
2994 2 553 436 439 440 # B N B N cis
2995 2 437 438 439 440 # B N B N cis
2996 1 438 437 442 441 # B N B N trans
2997 2 438 437 442 443 # B N B N cis
2998 1 437 442 441 446 # B N B N trans
2999 1 437 442 443 444 # B N B N trans
3000 2 437 442 443 440 # B N B N cis
3001 2 442 437 438 439 # B N B N cis
3002 2 438 439 440 443 # B N B N cis
3003 1 438 439 440 557 # B N B N trans
3004 2 439 440 443 442 # B N B N cis
3005 1 439 440 443 444 # B N B N trans
3006 2 439 440 557 558 # B N B N cis
3007 1 439 440 557 562 # B N B N trans
3008 1 440 443 442 441 # B N B N trans
3009 1 440 443 444 447 # B N B N trans
3010 2 440 443 444 561 # B N B N cis
3011 1 443 440 557 558 # B N B N trans
3012 2 443 440 557 562 # B N B N cis
3013 2 440 557 558 553 # B N B N cis
3014 1 440 557 558 559 # B N B N trans
3015 2 440 557 562 561 # B N B N cis
3016 1 440 557 562 563 # B N B N trans
3017 1 557 440 443 442 # B N B N trans
3018 2 557 440 443 444 # B N B N cis
3019 2 441 442 443 444 # B N B N cis
3020 1 442 441 446 445 # B N B N trans
3021 2 442 441 446 447 # B N B N cis
3022 1 441 446 445 450 # B N B N trans
3023 1 441 446 447 448 # B N B N trans
3024 2 441 446 447 444 # B N B N cis
3025 2 446 441 442 443 # B N B N cis
3026 2 442 443 444 447 # B N B N cis
3027 1 442 443 444 561 # B N B N trans
3028 2 443 444 447 446 # B N B N cis
3029 1 443 444 447 448 # B N B N trans
3030 2 443 444 561 562 # B N B N cis
3031 1 443 444 561 566 # B N B N trans
3032 1 444 447 446 445 # B N B N trans
3033 1 444 447 448 451 # B N B N trans
3034 2 444 447 448 565 # B N B N cis
3035 1 447 444 561 562 # B N B N trans
3036 2 447 444 561 566 # B N B N cis
3037 2 444 561 562 557 # B N B N cis
3038 1 444 561 562 563 # B N B N trans
3039 2 444 561 566 565 # B N B N cis
3040 1 444 561 566 567 # B N B N trans
3041 1 561 444 447 446 # B N B N trans
3042 2 561 444 447 448 # B N B N cis
3043 2 445 446 447 448 # B N B N cis
3044 1 446 445 450 449 # B N B N trans
3045 2 446 445 450 451 # B N B N cis
3046 1 445 450 449 454 # B N B N trans
3047 1 445 450 451 452 # B N B N trans
3048 2 445 450 451 448 # B N B N cis
3049 2 450 445 446 447 # B N B N cis
3050 2 446 447 448 451 # B N B N cis
3051 1 446 447 448 565 # B N B N trans
3052 2 447 448 451 450 # B N B N cis
3053 1 447 448 451 452 # B N B N trans
3054 2 447 448 565 566 # B N B N cis
3055 1 447 448 565 570 # B N B N trans
3056 1 448 451 450 449 # B N B N trans
3057 1 448 451 452 455 # B N B N trans
3058 2 448 451 452 569 # B N B N cis
3059 1 451 448 565 566 # B N B N trans
3060 2 451 448 565 570 # B N B N cis
3061 2 448 565 566 561 # B N B N cis
3062 1 448 565 566 567 # B N B N trans
3063 2 448 565 570 569 # B N B N cis
3064 1 448 565 570 571 # B N B N trans
3065 1 565 448 451 450 # B N B N trans
3066 2 565 448 451 452 # B N B N cis
3067 2 449 450 451 452 # B N B N cis
3068 1 450 449 454 453 # B N B N trans
3069 2 450 449 454 455 # B N B N cis
3070 1 449 454 453 458 # B N B N trans
3071 1 449 454 455 456 # B N B N trans
3072 2 449 454 455 452 # B N B N cis
3073 2 454 449 450 451 # B N B N cis
3074 2 450 451 452 455 # B N B N cis
3075 1 450 451 452 569 # B N B N trans
3076 2 451 452 455 454 # B N B N cis
3077 1 451 452 455 456 # B N B N trans
3078 2 451 452 569 570 # B N B N cis
3079 1 451 452 569 574 # B N B N trans
3080 1 452 455 454 453 # B N B N trans
3081 1 452 455 456 459 # B N B N trans
3082 2 452 455 456 573 # B N B N cis
3083 1 455 452 569 570 # B N B N trans
3084 2 455 452 569 574 # B N B N cis
3085 2 452 569 570 565 # B N B N cis
3086 1 452 569 570 571 # B N B N trans
3087 2 452 569 574 573 # B N B N cis
3088 1 452 569 574 575 # B N B N trans
3089 1 569 452 455 454 # B N B N trans
3090 2 569 452 455 456 # B N B N cis
3091 2 453 454 455 456 # B N B N cis
3092 1 454 453 458 457 # B N B N trans
3093 2 454 453 458 459 # B N B N cis
3094 1 453 458 457 462 # B N B N trans
3095 1 453 458 459 460 # B N B N trans
3096 2 453 458 459 456 # B N B N cis
3097 2 458 453 454 455 # B N B N cis
3098 2 454 455 456 459 # B N B N cis
3099 1 454 455 456 573 # B N B N trans
3100 2 455 456 459 458 # B N B N cis
3101 1 455 456 459 460 # B N B N trans
3102 2 455 456 573 574 # B N B N cis
3103 1 455 456 573 578 # B N B N trans
3104 1 456 459 458 457 # B N B N trans
3105 1 456 459 460 463 # B N B N trans
3106 2 456 459 460 577 # B N B N cis
3107 1 459 456 573 574 # B N B N trans
3108 2 459 456 573 578 # B N B N cis
3109 2 456 573 574 569 # B N B N cis
3110 1 456 573 574 575 # B N B N trans
3111 2 456 573 578 577 # B N B N cis
3112 1 456 573 578 579 # B N B N trans
3113 1 573 456 459 458 # B N B N trans
3114 2 573 456 459 460 # B N B N cis
3115 2 457 458 459 460 # B N B N cis
3116 1 458 457 462 461 # B N B N trans
3117 2 458 457 462 463 # B N B N cis
3118 1 457 462 461 466 # B N B N trans
3119 1 457 462 463 464 # B N B N trans
3120 2 457 462 463 460 # B N B N cis
3121 2 462 457 458 459 # B N B N cis
3122 2 458 459 460 463 # B N B N cis
3123 1 458 459 460 577 # B N B N trans
3124 2 459 460 463 462 # B N B N cis
3125 1 459 460 463 464 # B N B N trans
3126 2 459 460 577 578 # B N B N cis
3127 1 459 460 577 582 # B N B N trans
3128 1 460 463 462 461 # B N B N trans
3129 1 460 463 464 467 # B N B N trans
3130 2 460 463 464 581 # B N B N cis
3131 1 463 460 577 578 # B N B N trans
3132 2 463 460 577 582 # B N B N cis
3133 2 460 577 578 573 # B N B N cis
3134 1 460 577 578 579 # B N B N trans
3135 2 460 577 582 581 # B N B N cis
3136 1 460 577 582 583 # B N B N trans
3137 1 577 460 463 462 # B N B N trans
3138 2 577 460 463 464 # B N B N cis
3139 2 461 462 463 464 # B N B N cis
3140 1 462 461 466 465 # B N B N trans
3141 2 462 461 466 467 # B N B N cis
3142 1 461 466 465 470 # B N B N trans
3143 1 461 466 467 468 # B N B N trans
3144 2 461 466 467 464 # B N B N cis
3145 2 466 461 462 463 # B N B N cis
3146 2 462 463 464 467 # B N B N cis
3147 1 462 463 464 581 # B N B N trans
3148 2 463 464 467 466 # B N B N cis
3149 1 463 464 467 468 # B N B N trans
3150 2 463 464 581 582 # B N B N cis
3151 1 463 464 581 586 # B N B N trans
3152 1 464 467 466 465 # B N B N trans
3153 1 464 467 468 471 # B N B N trans
3154 2 464 467 468 585 # B N B N cis
3155 1 467 464 581 582 # B N B N trans
3156 2 467 464 581 586 # B N B N cis
3157 2 464 581 582 577 # B N B N cis
3158 1 464 581 582 583 # B N B N trans
3159 2 464 581 586 585 # B N B N cis
3160 1 464 581 586 587 # B N B N trans
3161 1 581 464 467 466 # B N B N trans
3162 2 581 464 467 468 # B N B N cis
3163 2 465 466 467 468 # B N B N cis
3164 1 466 465 470 469 # B N B N trans
3165 2 466 465 470 471 # B N B N cis
3166 1 465 470 469 474 # B N B N trans
3167 1 465 470 471 472 # B N B N trans
3168 2 465 470 471 468 # B N B N cis
3169 2 470 465 466 467 # B N B N cis
3170 2 466 467 468 471 # B N B N cis
3171 1 466 467 468 585 # B N B N trans
3172 2 467 468 471 470 # B N B N cis
3173 1 467 468 471 472 # B N B N trans
3174 2 467 468 585 586 # B N B N cis
3175 1 467 468 585 590 # B N B N trans
3176 1 468 471 470 469 # B N B N trans
3177 1 468 471 472 475 # B N B N trans
3178 2 468 471 472 589 # B N B N cis
3179 1 471 468 585 586 # B N B N trans
3180 2 471 468 585 590 # B N B N cis
3181 2 468 585 586 581 # B N B N cis
3182 1 468 585 586 587 # B N B N trans
3183 2 468 585 590 589 # B N B N cis
3184 1 468 585 590 591 # B N B N trans
3185 1 585 468 471 470 # B N B N trans
3186 2 585 468 471 472 # B N B N cis
3187 2 469 470 471 472 # B N B N cis
3188 1 470 469 474 473 # B N B N trans
3189 2 470 469 474 475 # B N B N cis
3190 1 469 474 473 478 # B N B N trans
3191 1 469 474 475 476 # B N B N trans
3192 2 469 474 475 472 # B N B N cis
3193 2 474 469 470 471 # B N B N cis
3194 2 470 471 472 475 # B N B N cis
3195 1 470 471 472 589 # B N B N trans
3196 2 471 472 475 474 # B N B N cis
3197 1 471 472 475 476 # B N B N trans
3198 2 471 472 589 590 # B N B N cis
3199 1 471 472 589 594 # B N B N trans
3200 1 472 475 474 473 # B N B N trans
3201 1 472 475 476 479 # B N B N trans
3202 2 472 475 476 593 # B N B N cis
3203 1 475 472 589 590 # B N B N trans
3204 2 475 472 589 594 # B N B N cis
3205 2 472 589 590 585 # B N B N cis
3206 1 472 589 590 591 # B N B N trans
3207 2 472 589 594 593 # B N B N cis
3208 1 472 589 594 595 # B N B N trans
3209 1 589 472 475 474 # B N B N trans
3210 2 589 472 475 476 # B N B N cis
3211 2 473 474 475 476 # B N B N cis
3212 1 474 473 478 477 # B N B N trans
3213 2 474 473 478 479 # B N B N cis
3214 1 473 478 479 480 # B N B N trans
3215 2 473 478 479 476 # B N B N cis
3216 2 478 473 474 475 # B N B N cis
3217 2 474 475 476 479 # B N B N cis
3218 1 474 475 476 593 # B N B N trans
3219 2 475 476 479 478 # B N B N cis
3220 1 475 476 479 480 # B N B N trans
3221 2 475 476 593 594 # B N B N cis
3222 1 475 476 593 598 # B N B N trans
3223 1 476 479 478 477 # B N B N trans
3224 2 476 479 480 597 # B N B N cis
3225 1 479 476 593 594 # B N B N trans
3226 2 479 476 593 598 # B N B N cis
3227 2 476 593 594 589 # B N B N cis
3228 1 476 593 594 595 # B N B N trans
3229 2 476 593 598 597 # B N B N cis
3230 1 476 593 598 599 # B N B N trans
3231 1 593 476 479 478 # B N B N trans
3232 2 593 476 479 480 # B N B N cis
3233 2 477 478 479 480 # B N B N cis
3234 1 478 479 480 597 # B N B N trans
3235 2 479 480 597 598 # B N B N cis
3236 1 479 480 597 482 # B N B N trans
3237 2 480 597 598 593 # B N B N cis
3238 1 480 597 598 599 # B N B N trans
3239 2 480 597 482 481 # B N B N cis
3240 1 480 597 482 483 # B N B N trans
3241 2 481 482 483 484 # B N B N cis
3242 1 481 482 483 600 # B N B N trans
3243 1 481 482 597 598 # B N B N trans
3244 1 482 481 486 485 # B N B N trans
3245 2 482 481 486 487 # B N B N cis
3246 1 481 486 485 490 # B N B N trans
3247 1 481 486 487 488 # B N B N trans
3248 2 481 486 487 484 # B N B N cis
3249 2 486 481 482 483 # B N B N cis
3250 1 486 481 482 597 # B N B N trans
3251 2 482 483 484 487 # B N B N cis
3252 1 482 483 484 601 # B N B N trans
3253 2 482 483 600 599 # B N B N cis
3254 1 482 483 600 717 # B N B N trans
3255 2 483 482 597 598 # B N B N cis
3256 1 482 597 598 593 # B N B N trans
3257 2 482 597 598 599 # B N B N cis
3258 1 597 482 483 484 # B N B N trans
3259 2 597 482 483 600 # B N B N cis
3260 2 483 484 487 486 # B N B N cis
3261 1 483 484 487 488 # B N B N trans
3262 1 483 484 601 606 # B N B N trans
3263 2 483 484 601 602 # B N B N cis
3264 1 484 483 600 599 # B N B N trans
3265 2 484 483 600 717 # B N B N cis
3266 2 483 600 599 598 # B N B N cis
3267 1 483 600 599 596 # B N B N trans
3268 2 483 600 717 602 # B N B N cis
3269 1 483 600 717 718 # B N B N trans
3270 1 600 483 484 487 # B N B N trans
3271 2 600 483 484 601 # B N B N cis
3272 1 484 487 486 485 # B N B N trans
3273 1 484 487 488 491 # B N B N trans
3274 2 484 487 488 605 # B N B N cis
3275 2 487 484 601 606 # B N B N cis
3276 1 487 484 601 602 # B N B N trans
3277 2 484 601 606 605 # B N B N cis
3278 1 484 601 606 607 # B N B N trans
3279 2 484 601 602 717 # B N B N cis
3280 1 484 601 602 603 # B N B N trans
3281 1 601 484 487 486 # B N B N trans
3282 2 601 484 487 488 # B N B N cis
3283 2 485 486 487 488 # B N B N cis
3284 1 486 485 490 489 # B N B N trans
3285 2 486 485 490 491 # B N B N cis
3286 1 485 490 489 494 # B N B N trans
3287 1 485 490 491 492 # B N B N trans
3288 2 485 490 491 488 # B N B N cis
3289 2 490 485 486 487 # B N B N cis
3290 2 486 487 488 491 # B N B N cis
3291 1 486 487 488 605 # B N B N trans
3292 2 487 488 491 490 # B N B N cis
3293 1 487 488 491 492 # B N B N trans
3294 1 487 488 605 610 # B N B N trans
3295 2 487 488 605 606 # B N B N cis
3296 1 488 491 490 489 # B N B N trans
3297 1 488 491 492 495 # B N B N trans
3298 2 488 491 492 609 # B N B N cis
3299 2 491 488 605 610 # B N B N cis
3300 1 491 488 605 606 # B N B N trans
3301 2 488 605 610 609 # B N B N cis
3302 1 488 605 610 611 # B N B N trans
3303 2 488 605 606 601 # B N B N cis
3304 1 488 605 606 607 # B N B N trans
3305 1 605 488 491 490 # B N B N trans
3306 2 605 488 491 492 # B N B N cis
3307 2 489 490 491 492 # B N B N cis
3308 1 490 489 494 493 # B N B N trans
3309 2 490 489 494 495 # B N B N cis
3310 1 489 494 493 498 # B N B N trans
3311 1 489 494 495 496 # B N B N trans
3312 2 489 494 495 492 # B N B N cis
3313 2 494 489 490 491 # B N B N cis
3314 2 490 491 492 495 # B N B N cis
3315 1 490 491 492 609 # B N B N trans
3316 2 491 492 495 494 # B N B N cis
3317 1 491 492 495 496 # B N B N trans
3318 1 491 492 609 614 # B N B N trans
3319 2 491 492 609 610 # B N B N cis
3320 1 492 495 494 493 # B N B N trans
3321 1 492 495 496 499 # B N B N trans
3322 2 492 495 496 613 # B N B N cis
3323 2 495 492 609 614 # B N B N cis
3324 1 495 492 609 610 # B N B N trans
3325 2 492 609 614 613 # B N B N cis
3326 1 492 609 614 615 # B N B N trans
3327 2 492 609 610 605 # B N B N cis
3328 1 492 609 610 611 # B N B N trans
3329 1 609 492 495 494 # B N B N trans
3330 2 609 492 495 496 # B N B N cis
3331 2 493 494 495 496 # B N B N cis
3332 1 494 493 498 497 # B N B N trans
3333 2 494 493 498 499 # B N B N cis
3334 1 493 498 497 502 # B N B N trans
3335 1 493 498 499 500 # B N B N trans
3336 2 493 498 499 496 # B N B N cis
3337 2 498 493 494 495 # B N B N cis
3338 2 494 495 496 499 # B N B N cis
3339 1 494 495 496 613 # B N B N trans
3340 2 495 496 499 498 # B N B N cis
3341 1 495 496 499 500 # B N B N trans
3342 1 495 496 613 618 # B N B N trans
3343 2 495 496 613 614 # B N B N cis
3344 1 496 499 498 497 # B N B N trans
3345 1 496 499 500 503 # B N B N trans
3346 2 496 499 500 617 # B N B N cis
3347 2 499 496 613 618 # B N B N cis
3348 1 499 496 613 614 # B N B N trans
3349 2 496 613 618 617 # B N B N cis
3350 1 496 613 618 619 # B N B N trans
3351 2 496 613 614 609 # B N B N cis
3352 1 496 613 614 615 # B N B N trans
3353 1 613 496 499 498 # B N B N trans
3354 2 613 496 499 500 # B N B N cis
3355 2 497 498 499 500 # B N B N cis
3356 1 498 497 502 501 # B N B N trans
3357 2 498 497 502 503 # B N B N cis
3358 1 497 502 501 506 # B N B N trans
3359 1 497 502 503 504 # B N B N trans
3360 2 497 502 503 500 # B N B N cis
3361 2 502 497 498 499 # B N B N cis
3362 2 498 499 500 503 # B N B N cis
3363 1 498 499 500 617 # B N B N trans
3364 2 499 500 503 502 # B N B N cis
3365 1 499 500 503 504 # B N B N trans
3366 1 499 500 617 622 # B N B N trans
3367 2 499 500 617 618 # B N B N cis
3368 1 500 503 502 501 # B N B N trans
3369 1 500 503 504 507 # B N B N trans
3370 2 500 503 504 621 # B N B N cis
3371 2 503 500 617 622 # B N B N cis
3372 1 503 500 617 618 # B N B N trans
3373 2 500 617 622 621 # B N B N cis
3374 1 500 617 622 623 # B N B N trans
3375 2 500 617 618 613 # B N B N cis
3376 1 500 617 618 619 # B N B N trans
3377 1 617 500 503 502 # B N B N trans
3378 2 617 500 503 504 # B N B N cis
3379 2 501 502 503 504 # B N B N cis
3380 1 502 501 506 505 # B N B N trans
3381 2 502 501 506 507 # B N B N cis
3382 1 501 506 505 510 # B N B N trans
3383 1 501 506 507 508 # B N B N trans
3384 2 501 506 507 504 # B N B N cis
3385 2 506 501 502 503 # B N B N cis
3386 2 502 503 504 507 # B N B N cis
3387 1 502 503 504 621 # B N B N trans
3388 2 503 504 507 506 # B N B N cis
3389 1 503 504 507 508 # B N B N trans
3390 1 503 504 621 626 # B N B N trans
3391 2 503 504 621 622 # B N B N cis
3392 1 504 507 506 505 # B N B N trans
3393 1 504 507 508 511 # B N B N trans
3394 2 504 507 508 625 # B N B N cis
3395 2 507 504 621 626 # B N B N cis
3396 1 507 504 621 622 # B N B N trans
3397 2 504 621 626 625 # B N B N cis
3398 1 504 621 626 627 # B N B N trans
3399 2 504 621 622 617 # B N B N cis
3400 1 504 621 622 623 # B N B N trans
3401 1 621 504 507 506 # B N B N trans
3402 2 621 504 507 508 # B N B N cis
3403 2 505 506 507 508 # B N B N cis
3404 1 506 505 510 509 # B N B N trans
3405 2 506 505 510 511 # B N B N cis
3406 1 505 510 509 514 # B N B N trans
3407 1 505 510 511 512 # B N B N trans
3408 2 505 510 511 508 # B N B N cis
3409 2 510 505 506 507 # B N B N cis
3410 2 506 507 508 511 # B N B N cis
3411 1 506 507 508 625 # B N B N trans
3412 2 507 508 511 510 # B N B N cis
3413 1 507 508 511 512 # B N B N trans
3414 1 507 508 625 630 # B N B N trans
3415 2 507 508 625 626 # B N B N cis
3416 1 508 511 510 509 # B N B N trans
3417 1 508 511 512 515 # B N B N trans
3418 2 508 511 512 629 # B N B N cis
3419 2 511 508 625 630 # B N B N cis
3420 1 511 508 625 626 # B N B N trans
3421 2 508 625 630 629 # B N B N cis
3422 1 508 625 630 631 # B N B N trans
3423 2 508 625 626 621 # B N B N cis
3424 1 508 625 626 627 # B N B N trans
3425 1 625 508 511 510 # B N B N trans
3426 2 625 508 511 512 # B N B N cis
3427 2 509 510 511 512 # B N B N cis
3428 1 510 509 514 513 # B N B N trans
3429 2 510 509 514 515 # B N B N cis
3430 1 509 514 513 518 # B N B N trans
3431 1 509 514 515 516 # B N B N trans
3432 2 509 514 515 512 # B N B N cis
3433 2 514 509 510 511 # B N B N cis
3434 2 510 511 512 515 # B N B N cis
3435 1 510 511 512 629 # B N B N trans
3436 2 511 512 515 514 # B N B N cis
3437 1 511 512 515 516 # B N B N trans
3438 1 511 512 629 634 # B N B N trans
3439 2 511 512 629 630 # B N B N cis
3440 1 512 515 514 513 # B N B N trans
3441 1 512 515 516 519 # B N B N trans
3442 2 512 515 516 633 # B N B N cis
3443 2 515 512 629 634 # B N B N cis
3444 1 515 512 629 630 # B N B N trans
3445 2 512 629 634 633 # B N B N cis
3446 1 512 629 634 635 # B N B N trans
3447 2 512 629 630 625 # B N B N cis
3448 1 512 629 630 631 # B N B N trans
3449 1 629 512 515 514 # B N B N trans
3450 2 629 512 515 516 # B N B N cis
3451 2 513 514 515 516 # B N B N cis
3452 1 514 513 518 517 # B N B N trans
3453 2 514 513 518 519 # B N B N cis
3454 1 513 518 517 522 # B N B N trans
3455 1 513 518 519 520 # B N B N trans
3456 2 513 518 519 516 # B N B N cis
3457 2 518 513 514 515 # B N B N cis
3458 2 514 515 516 519 # B N B N cis
3459 1 514 515 516 633 # B N B N trans
3460 2 515 516 519 518 # B N B N cis
3461 1 515 516 519 520 # B N B N trans
3462 1 515 516 633 638 # B N B N trans
3463 2 515 516 633 634 # B N B N cis
3464 1 516 519 518 517 # B N B N trans
3465 1 516 519 520 523 # B N B N trans
3466 2 516 519 520 637 # B N B N cis
3467 2 519 516 633 638 # B N B N cis
3468 1 519 516 633 634 # B N B N trans
3469 2 516 633 638 637 # B N B N cis
3470 1 516 633 638 639 # B N B N trans
3471 2 516 633 634 629 # B N B N cis
3472 1 516 633 634 635 # B N B N trans
3473 1 633 516 519 518 # B N B N trans
3474 2 633 516 519 520 # B N B N cis
3475 2 517 518 519 520 # B N B N cis
3476 1 518 517 522 521 # B N B N trans
3477 2 518 517 522 523 # B N B N cis
3478 1 517 522 521 526 # B N B N trans
3479 1 517 522 523 524 # B N B N trans
3480 2 517 522 523 520 # B N B N cis
3481 2 522 517 518 519 # B N B N cis
3482 2 518 519 520 523 # B N B N cis
3483 1 518 519 520 637 # B N B N trans
3484 2 519 520 523 522 # B N B N cis
3485 1 519 520 523 524 # B N B N trans
3486 1 519 520 637 642 # B N B N trans
3487 2 519 520 637 638 # B N B N cis
3488 1 520 523 522 521 # B N B N trans
3489 1 520 523 524 527 # B N B N trans
3490 2 520 523 524 641 # B N B N cis
3491 2 523 520 637 642 # B N B N cis
3492 1 523 520 637 638 # B N B N trans
3493 2 520 637 642 641 # B N B N cis
3494 1 520 637 642 643 # B N B N trans
3495 2 520 637 638 633 # B N B N cis
3496 1 520 637 638 639 # B N B N trans
3497 1 637 520 523 522 # B N B N trans
3498 2 637 520 523 524 # B N B N cis
3499 2 521 522 523 524 # B N B N cis
3500 1 522 521 526 525 # B N B N trans
3501 2 522 521 526 527 # B N B N cis
3502 1 521 526 525 530 # B N B N trans
3503 1 521 526 527 528 # B N B N trans
3504 2 521 526 527 524 # B N B N cis
3505 2 526 521 522 523 # B N B N cis
3506 2 522 523 524 527 # B N B N cis
3507 1 522 523 524 641 # B N B N trans
3508 2 523 524 527 526 # B N B N cis
3509 1 523 524 527 528 # B N B N trans
3510 1 523 524 641 646 # B N B N trans
3511 2 523 524 641 642 # B N B N cis
3512 1 524 527 526 525 # B N B N trans
3513 1 524 527 528 531 # B N B N trans
3514 2 524 527 528 645 # B N B N cis
3515 2 527 524 641 646 # B N B N cis
3516 1 527 524 641 642 # B N B N trans
3517 2 524 641 646 645 # B N B N cis
3518 1 524 641 646 647 # B N B N trans
3519 2 524 641 642 637 # B N B N cis
3520 1 524 641 642 643 # B N B N trans
3521 1 641 524 527 526 # B N B N trans
3522 2 641 524 527 528 # B N B N cis
3523 2 525 526 527 528 # B N B N cis
3524 1 526 525 530 529 # B N B N trans
3525 2 526 525 530 531 # B N B N cis
3526 1 525 530 529 534 # B N B N trans
3527 1 525 530 531 532 # B N B N trans
3528 2 525 530 531 528 # B N B N cis
3529 2 530 525 526 527 # B N B N cis
3530 2 526 527 528 531 # B N B N cis
3531 1 526 527 528 645 # B N B N trans
3532 2 527 528 531 530 # B N B N cis
3533 1 527 528 531 532 # B N B N trans
3534 1 527 528 645 650 # B N B N trans
3535 2 527 528 645 646 # B N B N cis
3536 1 528 531 530 529 # B N B N trans
3537 1 528 531 532 535 # B N B N trans
3538 2 528 531 532 649 # B N B N cis
3539 2 531 528 645 650 # B N B N cis
3540 1 531 528 645 646 # B N B N trans
3541 2 528 645 650 649 # B N B N cis
3542 1 528 645 650 651 # B N B N trans
3543 2 528 645 646 641 # B N B N cis
3544 1 528 645 646 647 # B N B N trans
3545 1 645 528 531 530 # B N B N trans
3546 2 645 528 531 532 # B N B N cis
3547 2 529 530 531 532 # B N B N cis
3548 1 530 529 534 533 # B N B N trans
3549 2 530 529 534 535 # B N B N cis
3550 1 529 534 533 538 # B N B N trans
3551 1 529 534 535 536 # B N B N trans
3552 2 529 534 535 532 # B N B N cis
3553 2 534 529 530 531 # B N B N cis
3554 2 530 531 532 535 # B N B N cis
3555 1 530 531 532 649 # B N B N trans
3556 2 531 532 535 534 # B N B N cis
3557 1 531 532 535 536 # B N B N trans
3558 1 531 532 649 654 # B N B N trans
3559 2 531 532 649 650 # B N B N cis
3560 1 532 535 534 533 # B N B N trans
3561 1 532 535 536 539 # B N B N trans
3562 2 532 535 536 653 # B N B N cis
3563 2 535 532 649 654 # B N B N cis
3564 1 535 532 649 650 # B N B N trans
3565 2 532 649 654 653 # B N B N cis
3566 1 532 649 654 655 # B N B N trans
3567 2 532 649 650 645 # B N B N cis
3568 1 532 649 650 651 # B N B N trans
3569 1 649 532 535 534 # B N B N trans
3570 2 649 532 535 536 # B N B N cis
3571 2 533 534 535 536 # B N B N cis
3572 1 534 533 538 537 # B N B N trans
3573 2 534 533 538 539 # B N B N cis
3574 1 533 538 537 542 # B N B N trans
3575 1 533 538 539 540 # B N B N trans
3576 2 533 538 539 536 # B N B N cis
3577 2 538 533 534 535 # B N B N cis
3578 2 534 535 536 539 # B N B N cis
3579 1 534 535 536 653 # B N B N trans
3580 2 535 536 539 538 # B N B N cis
3581 1 535 536 539 540 # B N B N trans
3582 1 535 536 653 658 # B N B N trans
3583 2 535 536 653 654 # B N B N cis
3584 1 536 539 538 537 # B N B N trans
3585 1 536 539 540 543 # B N B N trans
3586 2 536 539 540 657 # B N B N cis
3587 2 539 536 653 658 # B N B N cis
3588 1 539 536 653 654 # B N B N trans
3589 2 536 653 658 657 # B N B N cis
3590 1 536 653 658 659 # B N B N trans
3591 2 536 653 654 649 # B N B N cis
3592 1 536 653 654 655 # B N B N trans
3593 1 653 536 539 538 # B N B N trans
3594 2 653 536 539 540 # B N B N cis
3595 2 537 538 539 540 # B N B N cis
3596 1 538 537 542 541 # B N B N trans
3597 2 538 537 542 543 # B N B N cis
3598 1 537 542 541 546 # B N B N trans
3599 1 537 542 543 544 # B N B N trans
3600 2 537 542 543 540 # B N B N cis
3601 2 542 537 538 539 # B N B N cis
3602 2 538 539 540 543 # B N B N cis
3603 1 538 539 540 657 # B N B N trans
3604 2 539 540 543 542 # B N B N cis
3605 1 539 540 543 544 # B N B N trans
3606 1 539 540 657 662 # B N B N trans
3607 2 539 540 657 658 # B N B N cis
3608 1 540 543 542 541 # B N B N trans
3609 1 540 543 544 547 # B N B N trans
3610 2 540 543 544 661 # B N B N cis
3611 2 543 540 657 662 # B N B N cis
3612 1 543 540 657 658 # B N B N trans
3613 2 540 657 662 661 # B N B N cis
3614 1 540 657 662 663 # B N B N trans
3615 2 540 657 658 653 # B N B N cis
3616 1 540 657 658 659 # B N B N trans
3617 1 657 540 543 542 # B N B N trans
3618 2 657 540 543 544 # B N B N cis
3619 2 541 542 543 544 # B N B N cis
3620 1 542 541 546 545 # B N B N trans
3621 2 542 541 546 547 # B N B N cis
3622 1 541 546 545 550 # B N B N trans
3623 1 541 546 547 548 # B N B N trans
3624 2 541 546 547 544 # B N B N cis
3625 2 546 541 542 543 # B N B N cis
3626 2 542 543 544 547 # B N B N cis
3627 1 542 543 544 661 # B N B N trans
3628 2 543 544 547 546 # B N B N cis
3629 1 543 544 547 548 # B N B N trans
3630 1 543 544 661 666 # B N B N trans
3631 2 543 544 661 662 # B N B N cis
3632 1 544 547 546 545 # B N B N trans
3633 1 544 547 548 551 # B N B N trans
3634 2 544 547 548 665 # B N B N cis
3635 2 547 544 661 666 # B N B N cis
3636 1 547 544 661 662 # B N B N trans
3637 2 544 661 666 665 # B N B N cis
3638 1 544 661 666 667 # B N B N trans
3639 2 544 661 662 657 # B N B N cis
3640 1 544 661 662 663 # B N B N trans
3641 1 661 544 547 546 # B N B N trans
3642 2 661 544 547 548 # B N B N cis
3643 2 545 546 547 548 # B N B N cis
3644 1 546 545 550 549 # B N B N trans
3645 2 546 545 550 551 # B N B N cis
3646 1 545 550 549 554 # B N B N trans
3647 1 545 550 551 552 # B N B N trans
3648 2 545 550 551 548 # B N B N cis
3649 2 550 545 546 547 # B N B N cis
3650 2 546 547 548 551 # B N B N cis
3651 1 546 547 548 665 # B N B N trans
3652 2 547 548 551 550 # B N B N cis
3653 1 547 548 551 552 # B N B N trans
3654 1 547 548 665 670 # B N B N trans
3655 2 547 548 665 666 # B N B N cis
3656 1 548 551 550 549 # B N B N trans
3657 1 548 551 552 555 # B N B N trans
3658 2 548 551 552 669 # B N B N cis
3659 2 551 548 665 670 # B N B N cis
3660 1 551 548 665 666 # B N B N trans
3661 2 548 665 670 669 # B N B N cis
3662 1 548 665 670 671 # B N B N trans
3663 2 548 665 666 661 # B N B N cis
3664 1 548 665 666 667 # B N B N trans
3665 1 665 548 551 550 # B N B N trans
3666 2 665 548 551 552 # B N B N cis
3667 2 549 550 551 552 # B N B N cis
3668 1 550 549 554 553 # B N B N trans
3669 2 550 549 554 555 # B N B N cis
3670 1 549 554 553 558 # B N B N trans
3671 1 549 554 555 556 # B N B N trans
3672 2 549 554 555 552 # B N B N cis
3673 2 554 549 550 551 # B N B N cis
3674 2 550 551 552 555 # B N B N cis
3675 1 550 551 552 669 # B N B N trans
3676 2 551 552 555 554 # B N B N cis
3677 1 551 552 555 556 # B N B N trans
3678 1 551 552 669 674 # B N B N trans
3679 2 551 552 669 670 # B N B N cis
3680 1 552 555 554 553 # B N B N trans
3681 1 552 555 556 559 # B N B N trans
3682 2 552 555 556 673 # B N B N cis
3683 2 555 552 669 674 # B N B N cis
3684 1 555 552 669 670 # B N B N trans
3685 2 552 669 674 673 # B N B N cis
3686 1 552 669 674 675 # B N B N trans
3687 2 552 669 670 665 # B N B N cis
3688 1 552 669 670 671 # B N B N trans
3689 1 669 552 555 554 # B N B N trans
3690 2 669 552 555 556 # B N B N cis
3691 2 553 554 555 556 # B N B N cis
3692 1 554 553 558 557 # B N B N trans
3693 2 554 553 558 559 # B N B N cis
3694 1 553 558 557 562 # B N B N trans
3695 1 553 558 559 560 # B N B N trans
3696 2 553 558 559 556 # B N B N cis
3697 2 558 553 554 555 # B N B N cis
3698 2 554 555 556 559 # B N B N cis
3699 1 554 555 556 673 # B N B N trans
3700 2 555 556 559 558 # B N B N cis
3701 1 555 556 559 560 # B N B N trans
3702 1 555 556 673 678 # B N B N trans
3703 2 555 556 673 674 # B N B N cis
3704 1 556 559 558 557 # B N B N trans
3705 1 556 559 560 563 # B N B N trans
3706 2 556 559 560 677 # B N B N cis
3707 2 559 556 673 678 # B N B N cis
3708 1 559 556 673 674 # B N B N trans
3709 2 556 673 678 677 # B N B N cis
3710 1 556 673 678 679 # B N B N trans
3711 2 556 673 674 669 # B N B N cis
3712 1 556 673 674 675 # B N B N trans
3713 1 673 556 559 558 # B N B N trans
3714 2 673 556 559 560 # B N B N cis
3715 2 557 558 559 560 # B N B N cis
3716 1 558 557 562 561 # B N B N trans
3717 2 558 557 562 563 # B N B N cis
3718 1 557 562 561 566 # B N B N trans
3719 1 557 562 563 564 # B N B N trans
3720 2 557 562 563 560 # B N B N cis
3721 2 562 557 558 559 # B N B N cis
3722 2 558 559 560 563 # B N B N cis
3723 1 558 559 560 677 # B N B N trans
3724 2 559 560 563 562 # B N B N cis
3725 1 559 560 563 564 # B N B N trans
3726 1 559 560 677 682 # B N B N trans
3727 2 559 560 677 678 # B N B N cis
3728 1 560 563 562 561 # B N B N trans
3729 1 560 563 564 567 # B N B N trans
3730 2 560 563 564 681 # B N B N cis
3731 2 563 560 677 682 # B N B N cis
3732 1 563 560 677 678 # B N B N trans
3733 2 560 677 682 681 # B N B N cis
3734 1 560 677 682 683 # B N B N trans
3735 2 560 677 678 673 # B N B N cis
3736 1 560 677 678 679 # B N B N trans
3737 1 677 560 563 562 # B N B N trans
3738 2 677 560 563 564 # B N B N cis
3739 2 561 562 563 564 # B N B N cis
3740 1 562 561 566 565 # B N B N trans
3741 2 562 561 566 567 # B N B N cis
3742 1 561 566 565 570 # B N B N trans
3743 1 561 566 567 568 # B N B N trans
3744 2 561 566 567 564 # B N B N cis
3745 2 566 561 562 563 # B N B N cis
3746 2 562 563 564 567 # B N B N cis
3747 1 562 563 564 681 # B N B N trans
3748 2 563 564 567 566 # B N B N cis
3749 1 563 564 567 568 # B N B N trans
3750 1 563 564 681 686 # B N B N trans
3751 2 563 564 681 682 # B N B N cis
3752 1 564 567 566 565 # B N B N trans
3753 1 564 567 568 571 # B N B N trans
3754 2 564 567 568 685 # B N B N cis
3755 2 567 564 681 686 # B N B N cis
3756 1 567 564 681 682 # B N B N trans
3757 2 564 681 686 685 # B N B N cis
3758 1 564 681 686 687 # B N B N trans
3759 2 564 681 682 677 # B N B N cis
3760 1 564 681 682 683 # B N B N trans
3761 1 681 564 567 566 # B N B N trans
3762 2 681 564 567 568 # B N B N cis
3763 2 565 566 567 568 # B N B N cis
3764 1 566 565 570 569 # B N B N trans
3765 2 566 565 570 571 # B N B N cis
3766 1 565 570 569 574 # B N B N trans
3767 1 565 570 571 572 # B N B N trans
3768 2 565 570 571 568 # B N B N cis
3769 2 570 565 566 567 # B N B N cis
3770 2 566 567 568 571 # B N B N cis
3771 1 566 567 568 685 # B N B N trans
3772 2 567 568 571 570 # B N B N cis
3773 1 567 568 571 572 # B N B N trans
3774 1 567 568 685 690 # B N B N trans
3775 2 567 568 685 686 # B N B N cis
3776 1 568 571 570 569 # B N B N trans
3777 1 568 571 572 575 # B N B N trans
3778 2 568 571 572 689 # B N B N cis
3779 2 571 568 685 690 # B N B N cis
3780 1 571 568 685 686 # B N B N trans
3781 2 568 685 690 689 # B N B N cis
3782 1 568 685 690 691 # B N B N trans
3783 2 568 685 686 681 # B N B N cis
3784 1 568 685 686 687 # B N B N trans
3785 1 685 568 571 570 # B N B N trans
3786 2 685 568 571 572 # B N B N cis
3787 2 569 570 571 572 # B N B N cis
3788 1 570 569 574 573 # B N B N trans
3789 2 570 569 574 575 # B N B N cis
3790 1 569 574 573 578 # B N B N trans
3791 1 569 574 575 576 # B N B N trans
3792 2 569 574 575 572 # B N B N cis
3793 2 574 569 570 571 # B N B N cis
3794 2 570 571 572 575 # B N B N cis
3795 1 570 571 572 689 # B N B N trans
3796 2 571 572 575 574 # B N B N cis
3797 1 571 572 575 576 # B N B N trans
3798 1 571 572 689 694 # B N B N trans
3799 2 571 572 689 690 # B N B N cis
3800 1 572 575 574 573 # B N B N trans
3801 1 572 575 576 579 # B N B N trans
3802 2 572 575 576 693 # B N B N cis
3803 2 575 572 689 694 # B N B N cis
3804 1 575 572 689 690 # B N B N trans
3805 2 572 689 694 693 # B N B N cis
3806 1 572 689 694 695 # B N B N trans
3807 2 572 689 690 685 # B N B N cis
3808 1 572 689 690 691 # B N B N trans
3809 1 689 572 575 574 # B N B N trans
3810 2 689 572 575 576 # B N B N cis
3811 2 573 574 575 576 # B N B N cis
3812 1 574 573 578 577 # B N B N trans
3813 2 574 573 578 579 # B N B N cis
3814 1 573 578 577 582 # B N B N trans
3815 1 573 578 579 580 # B N B N trans
3816 2 573 578 579 576 # B N B N cis
3817 2 578 573 574 575 # B N B N cis
3818 2 574 575 576 579 # B N B N cis
3819 1 574 575 576 693 # B N B N trans
3820 2 575 576 579 578 # B N B N cis
3821 1 575 576 579 580 # B N B N trans
3822 1 575 576 693 698 # B N B N trans
3823 2 575 576 693 694 # B N B N cis
3824 1 576 579 578 577 # B N B N trans
3825 1 576 579 580 583 # B N B N trans
3826 2 576 579 580 697 # B N B N cis
3827 2 579 576 693 698 # B N B N cis
3828 1 579 576 693 694 # B N B N trans
3829 2 576 693 698 697 # B N B N cis
3830 1 576 693 698 699 # B N B N trans
3831 2 576 693 694 689 # B N B N cis
3832 1 576 693 694 695 # B N B N trans
3833 1 693 576 579 578 # B N B N trans
3834 2 693 576 579 580 # B N B N cis
3835 2 577 578 579 580 # B N B N cis
3836 1 578 577 582 581 # B N B N trans
3837 2 578 577 582 583 # B N B N cis
3838 1 577 582 581 586 # B N B N trans
3839 1 577 582 583 584 # B N B N trans
3840 2 577 582 583 580 # B N B N cis
3841 2 582 577 578 579 # B N B N cis
3842 2 578 579 580 583 # B N B N cis
3843 1 578 579 580 697 # B N B N trans
3844 2 579 580 583 582 # B N B N cis
3845 1 579 580 583 584 # B N B N trans
3846 1 579 580 697 702 # B N B N trans
3847 2 579 580 697 698 # B N B N cis
3848 1 580 583 582 581 # B N B N trans
3849 1 580 583 584 587 # B N B N trans
3850 2 580 583 584 701 # B N B N cis
3851 2 583 580 697 702 # B N B N cis
3852 1 583 580 697 698 # B N B N trans
3853 2 580 697 702 701 # B N B N cis
3854 1 580 697 702 703 # B N B N trans
3855 2 580 697 698 693 # B N B N cis
3856 1 580 697 698 699 # B N B N trans
3857 1 697 580 583 582 # B N B N trans
3858 2 697 580 583 584 # B N B N cis
3859 2 581 582 583 584 # B N B N cis
3860 1 582 581 586 585 # B N B N trans
3861 2 582 581 586 587 # B N B N cis
3862 1 581 586 585 590 # B N B N trans
3863 1 581 586 587 588 # B N B N trans
3864 2 581 586 587 584 # B N B N cis
3865 2 586 581 582 583 # B N B N cis
3866 2 582 583 584 587 # B N B N cis
3867 1 582 583 584 701 # B N B N trans
3868 2 583 584 587 586 # B N B N cis
3869 1 583 584 587 588 # B N B N trans
3870 1 583 584 701 706 # B N B N trans
3871 2 583 584 701 702 # B N B N cis
3872 1 584 587 586 585 # B N B N trans
3873 1 584 587 588 591 # B N B N trans
3874 2 584 587 588 705 # B N B N cis
3875 2 587 584 701 706 # B N B N cis
3876 1 587 584 701 702 # B N B N trans
3877 2 584 701 706 705 # B N B N cis
3878 1 584 701 706 707 # B N B N trans
3879 2 584 701 702 697 # B N B N cis
3880 1 584 701 702 703 # B N B N trans
3881 1 701 584 587 586 # B N B N trans
3882 2 701 584 587 588 # B N B N cis
3883 2 585 586 587 588 # B N B N cis
3884 1 586 585 590 589 # B N B N trans
3885 2 586 585 590 591 # B N B N cis
3886 1 585 590 589 594 # B N B N trans
3887 1 585 590 591 592 # B N B N trans
3888 2 585 590 591 588 # B N B N cis
3889 2 590 585 586 587 # B N B N cis
3890 2 586 587 588 591 # B N B N cis
3891 1 586 587 588 705 # B N B N trans
3892 2 587 588 591 590 # B N B N cis
3893 1 587 588 591 592 # B N B N trans
3894 1 587 588 705 710 # B N B N trans
3895 2 587 588 705 706 # B N B N cis
3896 1 588 591 590 589 # B N B N trans
3897 1 588 591 592 595 # B N B N trans
3898 2 588 591 592 709 # B N B N cis
3899 2 591 588 705 710 # B N B N cis
3900 1 591 588 705 706 # B N B N trans
3901 2 588 705 710 709 # B N B N cis
3902 1 588 705 710 711 # B N B N trans
3903 2 588 705 706 701 # B N B N cis
3904 1 588 705 706 707 # B N B N trans
3905 1 705 588 591 590 # B N B N trans
3906 2 705 588 591 592 # B N B N cis
3907 2 589 590 591 592 # B N B N cis
3908 1 590 589 594 593 # B N B N trans
3909 2 590 589 594 595 # B N B N cis
3910 1 589 594 593 598 # B N B N trans
3911 1 589 594 595 596 # B N B N trans
3912 2 589 594 595 592 # B N B N cis
3913 2 594 589 590 591 # B N B N cis
3914 2 590 591 592 595 # B N B N cis
3915 1 590 591 592 709 # B N B N trans
3916 2 591 592 595 594 # B N B N cis
3917 1 591 592 595 596 # B N B N trans
3918 1 591 592 709 714 # B N B N trans
3919 2 591 592 709 710 # B N B N cis
3920 1 592 595 594 593 # B N B N trans
3921 1 592 595 596 599 # B N B N trans
3922 2 592 595 596 713 # B N B N cis
3923 2 595 592 709 714 # B N B N cis
3924 1 595 592 709 710 # B N B N trans
3925 2 592 709 714 713 # B N B N cis
3926 1 592 709 714 715 # B N B N trans
3927 2 592 709 710 705 # B N B N cis
3928 1 592 709 710 711 # B N B N trans
3929 1 709 592 595 594 # B N B N trans
3930 2 709 592 595 596 # B N B N cis
3931 2 593 594 595 596 # B N B N cis
3932 1 594 593 598 597 # B N B N trans
3933 2 594 593 598 599 # B N B N cis
3934 1 593 598 599 600 # B N B N trans
3935 2 593 598 599 596 # B N B N cis
3936 2 598 593 594 595 # B N B N cis
3937 2 594 595 596 599 # B N B N cis
3938 1 594 595 596 713 # B N B N trans
3939 2 595 596 599 598 # B N B N cis
3940 1 595 596 599 600 # B N B N trans
3941 1 595 596 713 718 # B N B N trans
3942 2 595 596 713 714 # B N B N cis
3943 1 596 599 598 597 # B N B N trans
3944 2 596 599 600 717 # B N B N cis
3945 2 599 596 713 718 # B N B N cis
3946 1 599 596 713 714 # B N B N trans
3947 2 596 713 718 717 # B N B N cis
3948 1 596 713 718 719 # B N B N trans
3949 2 596 713 714 709 # B N B N cis
3950 1 596 713 714 715 # B N B N trans
3951 1 713 596 599 598 # B N B N trans
3952 2 713 596 599 600 # B N B N cis
3953 2 597 598 599 600 # B N B N cis
3954 1 598 599 600 717 # B N B N trans
3955 1 599 600 717 602 # B N B N trans
3956 2 599 600 717 718 # B N B N cis
3957 2 600 717 602 601 # B N B N cis
3958 1 600 717 602 603 # B N B N trans
3959 2 600 717 718 713 # B N B N cis
3960 1 600 717 718 719 # B N B N trans
3961 1 601 606 605 610 # B N B N trans
3962 2 601 606 607 604 # B N B N cis
3963 1 601 606 607 608 # B N B N trans
3964 1 606 601 602 717 # B N B N trans
3965 2 606 601 602 603 # B N B N cis
3966 1 601 602 717 718 # B N B N trans
3967 2 601 602 603 604 # B N B N cis
3968 1 601 602 603 720 # B N B N trans
3969 1 602 601 606 605 # B N B N trans
3970 2 602 601 606 607 # B N B N cis
3971 1 602 717 718 713 # B N B N trans
3972 2 602 717 718 719 # B N B N cis
3973 1 717 602 603 604 # B N B N trans
3974 2 717 602 603 720 # B N B N cis
3975 2 602 603 604 607 # B N B N cis
3976 1 602 603 604 721 # B N B N trans
3977 2 602 603 720 719 # B N B N cis
3978 1 602 603 720 837 # B N B N trans
3979 2 603 602 717 718 # B N B N cis
3980 2 603 604 607 606 # B N B N cis
3981 1 603 604 607 608 # B N B N trans
3982 1 603 604 721 726 # B N B N trans
3983 2 603 604 721 722 # B N B N cis
3984 1 604 603 720 719 # B N B N trans
3985 2 604 603 720 837 # B N B N cis
3986 2 603 720 719 718 # B N B N cis
3987 1 603 720 719 716 # B N B N trans
3988 2 603 720 837 722 # B N B N cis
3989 1 603 720 837 838 # B N B N trans
3990 1 720 603 604 607 # B N B N trans
3991 2 720 603 604 721 # B N B N cis
3992 1 604 607 606 605 # B N B N trans
3993 1 604 607 608 611 # B N B N trans
3994 2 604 607 608 725 # B N B N cis
3995 2 607 604 721 726 # B N B N cis
3996 1 607 604 721 722 # B N B N trans
3997 2 604 721 726 725 # B N B N cis
3998 1 604 721 726 727 # B N B N trans
3999 2 604 721 722 837 # B N B N cis
4000 1 604 721 722 723 # B N B N trans
4001 1 721 604 607 606 # B N B N trans
4002 2 721 604 607 608 # B N B N cis
4003 1 605 610 609 614 # B N B N trans
4004 2 605 610 611 608 # B N B N cis
4005 1 605 610 611 612 # B N B N trans
4006 2 610 605 606 607 # B N B N cis
4007 2 605 606 607 608 # B N B N cis
4008 1 606 605 610 609 # B N B N trans
4009 2 606 605 610 611 # B N B N cis
4010 2 606 607 608 611 # B N B N cis
4011 1 606 607 608 725 # B N B N trans
4012 2 607 608 611 610 # B N B N cis
4013 1 607 608 611 612 # B N B N trans
4014 1 607 608 725 730 # B N B N trans
4015 2 607 608 725 726 # B N B N cis
4016 1 608 611 610 609 # B N B N trans
4017 1 608 611 612 615 # B N B N trans
4018 2 608 611 612 729 # B N B N cis
4019 2 611 608 725 730 # B N B N cis
4020 1 611 608 725 726 # B N B N trans
4021 2 608 725 730 729 # B N B N cis
4022 1 608 725 730 731 # B N B N trans
4023 2 608 725 726 721 # B N B N cis
4024 1 608 725 726 727 # B N B N trans
4025 1 725 608 611 610 # B N B N trans
4026 2 725 608 611 612 # B N B N cis
4027 1 609 614 613 618 # B N B N trans
4028 2 609 614 615 612 # B N B N cis
4029 1 609 614 615 616 # B N B N trans
4030 2 614 609 610 611 # B N B N cis
4031 2 609 610 611 612 # B N B N cis
4032 1 610 609 614 613 # B N B N trans
4033 2 610 609 614 615 # B N B N cis
4034 2 610 611 612 615 # B N B N cis
4035 1 610 611 612 729 # B N B N trans
4036 2 611 612 615 614 # B N B N cis
4037 1 611 612 615 616 # B N B N trans
4038 1 611 612 729 734 # B N B N trans
4039 2 611 612 729 730 # B N B N cis
4040 1 612 615 614 613 # B N B N trans
4041 1 612 615 616 619 # B N B N trans
4042 2 612 615 616 733 # B N B N cis
4043 2 615 612 729 734 # B N B N cis
4044 1 615 612 729 730 # B N B N trans
4045 2 612 729 734 733 # B N B N cis
4046 1 612 729 734 735 # B N B N trans
4047 2 612 729 730 725 # B N B N cis
4048 1 612 729 730 731 # B N B N trans
4049 1 729 612 615 614 # B N B N trans
4050 2 729 612 615 616 # B N B N cis
4051 1 613 618 617 622 # B N B N trans
4052 2 613 618 619 616 # B N B N cis
4053 1 613 618 619 620 # B N B N trans
4054 2 618 613 614 615 # B N B N cis
4055 2 613 614 615 616 # B N B N cis
4056 1 614 613 618 617 # B N B N trans
4057 2 614 613 618 619 # B N B N cis
4058 2 614 615 616 619 # B N B N cis
4059 1 614 615 616 733 # B N B N trans
4060 2 615 616 619 618 # B N B N cis
4061 1 615 616 619 620 # B N B N trans
4062 1 615 616 733 738 # B N B N trans
4063 2 615 616 733 734 # B N B N cis
4064 1 616 619 618 617 # B N B N trans
4065 1 616 619 620 623 # B N B N trans
4066 2 616 619 620 737 # B N B N cis
4067 2 619 616 733 738 # B N B N cis
4068 1 619 616 733 734 # B N B N trans
4069 2 616 733 738 737 # B N B N cis
4070 1 616 733 738 739 # B N B N trans
4071 2 616 733 734 729 # B N B N cis
4072 1 616 733 734 735 # B N B N trans
4073 1 733 616 619 618 # B N B N trans
4074 2 733 616 619 620 # B N B N cis
4075 1 617 622 621 626 # B N B N trans
4076 2 617 622 623 620 # B N B N cis
4077 1 617 622 623 624 # B N B N trans
4078 2 622 617 618 619 # B N B N cis
4079 2 617 618 619 620 # B N B N cis
4080 1 618 617 622 621 # B N B N trans
4081 2 618 617 622 623 # B N B N cis
4082 2 618 619 620 623 # B N B N cis
4083 1 618 619 620 737 # B N B N trans
4084 2 619 620 623 622 # B N B N cis
4085 1 619 620 623 624 # B N B N trans
4086 1 619 620 737 742 # B N B N trans
4087 2 619 620 737 738 # B N B N cis
4088 1 620 623 622 621 # B N B N trans
4089 1 620 623 624 627 # B N B N trans
4090 2 620 623 624 741 # B N B N cis
4091 2 623 620 737 742 # B N B N cis
4092 1 623 620 737 738 # B N B N trans
4093 2 620 737 742 741 # B N B N cis
4094 1 620 737 742 743 # B N B N trans
4095 2 620 737 738 733 # B N B N cis
4096 1 620 737 738 739 # B N B N trans
4097 1 737 620 623 622 # B N B N trans
4098 2 737 620 623 624 # B N B N cis
4099 1 621 626 625 630 # B N B N trans
4100 2 621 626 627 624 # B N B N cis
4101 1 621 626 627 628 # B N B N trans
4102 2 626 621 622 623 # B N B N cis
4103 2 621 622 623 624 # B N B N cis
4104 1 622 621 626 625 # B N B N trans
4105 2 622 621 626 627 # B N B N cis
4106 2 622 623 624 627 # B N B N cis
4107 1 622 623 624 741 # B N B N trans
4108 2 623 624 627 626 # B N B N cis
4109 1 623 624 627 628 # B N B N trans
4110 1 623 624 741 746 # B N B N trans
4111 2 623 624 741 742 # B N B N cis
4112 1 624 627 626 625 # B N B N trans
4113 1 624 627 628 631 # B N B N trans
4114 2 624 627 628 745 # B N B N cis
4115 2 627 624 741 746 # B N B N cis
4116 1 627 624 741 742 # B N B N trans
4117 2 624 741 746 745 # B N B N cis
4118 1 624 741 746 747 # B N B N trans
4119 2 624 741 742 737 # B N B N cis
4120 1 624 741 742 743 # B N B N trans
4121 1 741 624 627 626 # B N B N trans
4122 2 741 624 627 628 # B N B N cis
4123 1 625 630 629 634 # B N B N trans
4124 2 625 630 631 628 # B N B N cis
4125 1 625 630 631 632 # B N B N trans
4126 2 630 625 626 627 # B N B N cis
4127 2 625 626 627 628 # B N B N cis
4128 1 626 625 630 629 # B N B N trans
4129 2 626 625 630 631 # B N B N cis
4130 2 626 627 628 631 # B N B N cis
4131 1 626 627 628 745 # B N B N trans
4132 2 627 628 631 630 # B N B N cis
4133 1 627 628 631 632 # B N B N trans
4134 1 627 628 745 750 # B N B N trans
4135 2 627 628 745 746 # B N B N cis
4136 1 628 631 630 629 # B N B N trans
4137 1 628 631 632 635 # B N B N trans
4138 2 628 631 632 749 # B N B N cis
4139 2 631 628 745 750 # B N B N cis
4140 1 631 628 745 746 # B N B N trans
4141 2 628 745 750 749 # B N B N cis
4142 1 628 745 750 751 # B N B N trans
4143 2 628 745 746 741 # B N B N cis
4144 1 628 745 746 747 # B N B N trans
4145 1 745 628 631 630 # B N B N trans
4146 2 745 628 631 632 # B N B N cis
4147 1 629 634 633 638 # B N B N trans
4148 2 629 634 635 632 # B N B N cis
4149 1 629 634 635 636 # B N B N trans
4150 2 634 629 630 631 # B N B N cis
4151 2 629 630 631 632 # B N B N cis
4152 1 630 629 634 633 # B N B N trans
4153 2 630 629 634 635 # B N B N cis
4154 2 630 631 632 635 # B N B N cis
4155 1 630 631 632 749 # B N B N trans
4156 2 631 632 635 634 # B N B N cis
4157 1 631 632 635 636 # B N B N trans
4158 1 631 632 749 754 # B N B N trans
4159 2 631 632 749 750 # B N B N cis
4160 1 632 635 634 633 # B N B N trans
4161 1 632 635 636 639 # B N B N trans
4162 2 632 635 636 753 # B N B N cis
4163 2 635 632 749 754 # B N B N cis
4164 1 635 632 749 750 # B N B N trans
4165 2 632 749 754 753 # B N B N cis
4166 1 632 749 754 755 # B N B N trans
4167 2 632 749 750 745 # B N B N cis
4168 1 632 749 750 751 # B N B N trans
4169 1 749 632 635 634 # B N B N trans
4170 2 749 632 635 636 # B N B N cis
4171 1 633 638 637 642 # B N B N trans
4172 2 633 638 639 636 # B N B N cis
4173 1 633 638 639 640 # B N B N trans
4174 2 638 633 634 635 # B N B N cis
4175 2 633 634 635 636 # B N B N cis
4176 1 634 633 638 637 # B N B N trans
4177 2 634 633 638 639 # B N B N cis
4178 2 634 635 636 639 # B N B N cis
4179 1 634 635 636 753 # B N B N trans
4180 2 635 636 639 638 # B N B N cis
4181 1 635 636 639 640 # B N B N trans
4182 1 635 636 753 758 # B N B N trans
4183 2 635 636 753 754 # B N B N cis
4184 1 636 639 638 637 # B N B N trans
4185 1 636 639 640 643 # B N B N trans
4186 2 636 639 640 757 # B N B N cis
4187 2 639 636 753 758 # B N B N cis
4188 1 639 636 753 754 # B N B N trans
4189 2 636 753 758 757 # B N B N cis
4190 1 636 753 758 759 # B N B N trans
4191 2 636 753 754 749 # B N B N cis
4192 1 636 753 754 755 # B N B N trans
4193 1 753 636 639 638 # B N B N trans
4194 2 753 636 639 640 # B N B N cis
4195 1 637 642 641 646 # B N B N trans
4196 2 637 642 643 640 # B N B N cis
4197 1 637 642 643 644 # B N B N trans
4198 2 642 637 638 639 # B N B N cis
4199 2 637 638 639 640 # B N B N cis
4200 1 638 637 642 641 # B N B N trans
4201 2 638 637 642 643 # B N B N cis
4202 2 638 639 640 643 # B N B N cis
4203 1 638 639 640 757 # B N B N trans
4204 2 639 640 643 642 # B N B N cis
4205 1 639 640 643 644 # B N B N trans
4206 1 639 640 757 762 # B N B N trans
4207 2 639 640 757 758 # B N B N cis
4208 1 640 643 642 641 # B N B N trans
4209 1 640 643 644 647 # B N B N trans
4210 2 640 643 644 761 # B N B N cis
4211 2 643 640 757 762 # B N B N cis
4212 1 643 640 757 758 # B N B N trans
4213 2 640 757 762 761 # B N B N cis
4214 1 640 757 762 763 # B N B N trans
4215 2 640 757 758 753 # B N B N cis
4216 1 640 757 758 759 # B N B N trans
4217 1 757 640 643 642 # B N B N trans
4218 2 757 640 643 644 # B N B N cis
4219 1 641 646 645 650 # B N B N trans
4220 2 641 646 647 644 # B N B N cis
4221 1 641 646 647 648 # B N B N trans
4222 2 646 641 642 643 # B N B N cis
4223 2 641 642 643 644 # B N B N cis
4224 1 642 641 646 645 # B N B N trans
4225 2 642 641 646 647 # B N B N cis
4226 2 642 643 644 647 # B N B N cis
4227 1 642 643 644 761 # B N B N trans
4228 2 643 644 647 646 # B N B N cis
4229 1 643 644 647 648 # B N B N trans
4230 1 643 644 761 766 # B N B N trans
4231 2 643 644 761 762 # B N B N cis
4232 1 644 647 646 645 # B N B N trans
4233 1 644 647 648 651 # B N B N trans
4234 2 644 647 648 765 # B N B N cis
4235 2 647 644 761 766 # B N B N cis
4236 1 647 644 761 762 # B N B N trans
4237 2 644 761 766 765 # B N B N cis
4238 1 644 761 766 767 # B N B N trans
4239 2 644 761 762 757 # B N B N cis
4240 1 644 761 762 763 # B N B N trans
4241 1 761 644 647 646 # B N B N trans
4242 2 761 644 647 648 # B N B N cis
4243 1 645 650 649 654 # B N B N trans
4244 2 645 650 651 648 # B N B N cis
4245 1 645 650 651 652 # B N B N trans
4246 2 650 645 646 647 # B N B N cis
4247 2 645 646 647 648 # B N B N cis
4248 1 646 645 650 649 # B N B N trans
4249 2 646 645 650 651 # B N B N cis
4250 2 646 647 648 651 # B N B N cis
4251 1 646 647 648 765 # B N B N trans
4252 2 647 648 651 650 # B N B N cis
4253 1 647 648 651 652 # B N B N trans
4254 1 647 648 765 770 # B N B N trans
4255 2 647 648 765 766 # B N B N cis
4256 1 648 651 650 649 # B N B N trans
4257 1 648 651 652 655 # B N B N trans
4258 2 648 651 652 769 # B N B N cis
4259 2 651 648 765 770 # B N B N cis
4260 1 651 648 765 766 # B N B N trans
4261 2 648 765 770 769 # B N B N cis
4262 1 648 765 770 771 # B N B N trans
4263 2 648 765 766 761 # B N B N cis
4264 1 648 765 766 767 # B N B N trans
4265 1 765 648 651 650 # B N B N trans
4266 2 765 648 651 652 # B N B N cis
4267 1 649 654 653 658 # B N B N trans
4268 2 649 654 655 652 # B N B N cis
4269 1 649 654 655 656 # B N B N trans
4270 2 654 649 650 651 # B N B N cis
4271 2 649 650 651 652 # B N B N cis
4272 1 650 649 654 653 # B N B N trans
4273 2 650 649 654 655 # B N B N cis
4274 2 650 651 652 655 # B N B N cis
4275 1 650 651 652 769 # B N B N trans
4276 2 651 652 655 654 # B N B N cis
4277 1 651 652 655 656 # B N B N trans
4278 1 651 652 769 774 # B N B N trans
4279 2 651 652 769 770 # B N B N cis
4280 1 652 655 654 653 # B N B N trans
4281 1 652 655 656 659 # B N B N trans
4282 2 652 655 656 773 # B N B N cis
4283 2 655 652 769 774 # B N B N cis
4284 1 655 652 769 770 # B N B N trans
4285 2 652 769 774 773 # B N B N cis
4286 1 652 769 774 775 # B N B N trans
4287 2 652 769 770 765 # B N B N cis
4288 1 652 769 770 771 # B N B N trans
4289 1 769 652 655 654 # B N B N trans
4290 2 769 652 655 656 # B N B N cis
4291 1 653 658 657 662 # B N B N trans
4292 2 653 658 659 656 # B N B N cis
4293 1 653 658 659 660 # B N B N trans
4294 2 658 653 654 655 # B N B N cis
4295 2 653 654 655 656 # B N B N cis
4296 1 654 653 658 657 # B N B N trans
4297 2 654 653 658 659 # B N B N cis
4298 2 654 655 656 659 # B N B N cis
4299 1 654 655 656 773 # B N B N trans
4300 2 655 656 659 658 # B N B N cis
4301 1 655 656 659 660 # B N B N trans
4302 1 655 656 773 778 # B N B N trans
4303 2 655 656 773 774 # B N B N cis
4304 1 656 659 658 657 # B N B N trans
4305 1 656 659 660 663 # B N B N trans
4306 2 656 659 660 777 # B N B N cis
4307 2 659 656 773 778 # B N B N cis
4308 1 659 656 773 774 # B N B N trans
4309 2 656 773 778 777 # B N B N cis
4310 1 656 773 778 779 # B N B N trans
4311 2 656 773 774 769 # B N B N cis
4312 1 656 773 774 775 # B N B N trans
4313 1 773 656 659 658 # B N B N trans
4314 2 773 656 659 660 # B N B N cis
4315 1 657 662 661 666 # B N B N trans
4316 2 657 662 663 660 # B N B N cis
4317 1 657 662 663 664 # B N B N trans
4318 2 662 657 658 659 # B N B N cis
4319 2 657 658 659 660 # B N B N cis
4320 1 658 657 662 661 # B N B N trans
4321 2 658 657 662 663 # B N B N cis
4322 2 658 659 660 663 # B N B N cis
4323 1 658 659 660 777 # B N B N trans
4324 2 659 660 663 662 # B N B N cis
4325 1 659 660 663 664 # B N B N trans
4326 1 659 660 777 782 # B N B N trans
4327 2 659 660 777 778 # B N B N cis
4328 1 660 663 662 661 # B N B N trans
4329 1 660 663 664 667 # B N B N trans
4330 2 660 663 664 781 # B N B N cis
4331 2 663 660 777 782 # B N B N cis
4332 1 663 660 777 778 # B N B N trans
4333 2 660 777 782 781 # B N B N cis
4334 1 660 777 782 783 # B N B N trans
4335 2 660 777 778 773 # B N B N cis
4336 1 660 777 778 779 # B N B N trans
4337 1 777 660 663 662 # B N B N trans
4338 2 777 660 663 664 # B N B N cis
4339 1 661 666 665 670 # B N B N trans
4340 2 661 666 667 664 # B N B N cis
4341 1 661 666 667 668 # B N B N trans
4342 2 666 661 662 663 # B N B N cis
4343 2 661 662 663 664 # B N B N cis
4344 1 662 661 666 665 # B N B N trans
4345 2 662 661 666 667 # B N B N cis
4346 2 662 663 664 667 # B N B N cis
4347 1 662 663 664 781 # B N B N trans
4348 2 663 664 667 666 # B N B N cis
4349 1 663 664 667 668 # B N B N trans
4350 1 663 664 781 786 # B N B N trans
4351 2 663 664 781 782 # B N B N cis
4352 1 664 667 666 665 # B N B N trans
4353 1 664 667 668 671 # B N B N trans
4354 2 664 667 668 785 # B N B N cis
4355 2 667 664 781 786 # B N B N cis
4356 1 667 664 781 782 # B N B N trans
4357 2 664 781 786 785 # B N B N cis
4358 1 664 781 786 787 # B N B N trans
4359 2 664 781 782 777 # B N B N cis
4360 1 664 781 782 783 # B N B N trans
4361 1 781 664 667 666 # B N B N trans
4362 2 781 664 667 668 # B N B N cis
4363 1 665 670 669 674 # B N B N trans
4364 2 665 670 671 668 # B N B N cis
4365 1 665 670 671 672 # B N B N trans
4366 2 670 665 666 667 # B N B N cis
4367 2 665 666 667 668 # B N B N cis
4368 1 666 665 670 669 # B N B N trans
4369 2 666 665 670 671 # B N B N cis
4370 2 666 667 668 671 # B N B N cis
4371 1 666 667 668 785 # B N B N trans
4372 2 667 668 671 670 # B N B N cis
4373 1 667 668 671 672 # B N B N trans
4374 1 667 668 785 790 # B N B N trans
4375 2 667 668 785 786 # B N B N cis
4376 1 668 671 670 669 # B N B N trans
4377 1 668 671 672 675 # B N B N trans
4378 2 668 671 672 789 # B N B N cis
4379 2 671 668 785 790 # B N B N cis
4380 1 671 668 785 786 # B N B N trans
4381 2 668 785 790 789 # B N B N cis
4382 1 668 785 790 791 # B N B N trans
4383 2 668 785 786 781 # B N B N cis
4384 1 668 785 786 787 # B N B N trans
4385 1 785 668 671 670 # B N B N trans
4386 2 785 668 671 672 # B N B N cis
4387 1 669 674 673 678 # B N B N trans
4388 2 669 674 675 672 # B N B N cis
4389 1 669 674 675 676 # B N B N trans
4390 2 674 669 670 671 # B N B N cis
4391 2 669 670 671 672 # B N B N cis
4392 1 670 669 674 673 # B N B N trans
4393 2 670 669 674 675 # B N B N cis
4394 2 670 671 672 675 # B N B N cis
4395 1 670 671 672 789 # B N B N trans
4396 2 671 672 675 674 # B N B N cis
4397 1 671 672 675 676 # B N B N trans
4398 1 671 672 789 794 # B N B N trans
4399 2 671 672 789 790 # B N B N cis
4400 1 672 675 674 673 # B N B N trans
4401 1 672 675 676 679 # B N B N trans
4402 2 672 675 676 793 # B N B N cis
4403 2 675 672 789 794 # B N B N cis
4404 1 675 672 789 790 # B N B N trans
4405 2 672 789 794 793 # B N B N cis
4406 1 672 789 794 795 # B N B N trans
4407 2 672 789 790 785 # B N B N cis
4408 1 672 789 790 791 # B N B N trans
4409 1 789 672 675 674 # B N B N trans
4410 2 789 672 675 676 # B N B N cis
4411 1 673 678 677 682 # B N B N trans
4412 2 673 678 679 676 # B N B N cis
4413 1 673 678 679 680 # B N B N trans
4414 2 678 673 674 675 # B N B N cis
4415 2 673 674 675 676 # B N B N cis
4416 1 674 673 678 677 # B N B N trans
4417 2 674 673 678 679 # B N B N cis
4418 2 674 675 676 679 # B N B N cis
4419 1 674 675 676 793 # B N B N trans
4420 2 675 676 679 678 # B N B N cis
4421 1 675 676 679 680 # B N B N trans
4422 1 675 676 793 798 # B N B N trans
4423 2 675 676 793 794 # B N B N cis
4424 1 676 679 678 677 # B N B N trans
4425 1 676 679 680 683 # B N B N trans
4426 2 676 679 680 797 # B N B N cis
4427 2 679 676 793 798 # B N B N cis
4428 1 679 676 793 794 # B N B N trans
4429 2 676 793 798 797 # B N B N cis
4430 1 676 793 798 799 # B N B N trans
4431 2 676 793 794 789 # B N B N cis
4432 1 676 793 794 795 # B N B N trans
4433 1 793 676 679 678 # B N B N trans
4434 2 793 676 679 680 # B N B N cis
4435 1 677 682 681 686 # B N B N trans
4436 2 677 682 683 680 # B N B N cis
4437 1 677 682 683 684 # B N B N trans
4438 2 682 677 678 679 # B N B N cis
4439 2 677 678 679 680 # B N B N cis
4440 1 678 677 682 681 # B N B N trans
4441 2 678 677 682 683 # B N B N cis
4442 2 678 679 680 683 # B N B N cis
4443 1 678 679 680 797 # B N B N trans
4444 2 679 680 683 682 # B N B N cis
4445 1 679 680 683 684 # B N B N trans
4446 1 679 680 797 802 # B N B N trans
4447 2 679 680 797 798 # B N B N cis
4448 1 680 683 682 681 # B N B N trans
4449 1 680 683 684 687 # B N B N trans
4450 2 680 683 684 801 # B N B N cis
4451 2 683 680 797 802 # B N B N cis
4452 1 683 680 797 798 # B N B N trans
4453 2 680 797 802 801 # B N B N cis
4454 1 680 797 802 803 # B N B N trans
4455 2 680 797 798 793 # B N B N cis
4456 1 680 797 798 799 # B N B N trans
4457 1 797 680 683 682 # B N B N trans
4458 2 797 680 683 684 # B N B N cis
4459 1 681 686 685 690 # B N B N trans
4460 2 681 686 687 684 # B N B N cis
4461 1 681 686 687 688 # B N B N trans
4462 2 686 681 682 683 # B N B N cis
4463 2 681 682 683 684 # B N B N cis
4464 1 682 681 686 685 # B N B N trans
4465 2 682 681 686 687 # B N B N cis
4466 2 682 683 684 687 # B N B N cis
4467 1 682 683 684 801 # B N B N trans
4468 2 683 684 687 686 # B N B N cis
4469 1 683 684 687 688 # B N B N trans
4470 1 683 684 801 806 # B N B N trans
4471 2 683 684 801 802 # B N B N cis
4472 1 684 687 686 685 # B N B N trans
4473 1 684 687 688 691 # B N B N trans
4474 2 684 687 688 805 # B N B N cis
4475 2 687 684 801 806 # B N B N cis
4476 1 687 684 801 802 # B N B N trans
4477 2 684 801 806 805 # B N B N cis
4478 1 684 801 806 807 # B N B N trans
4479 2 684 801 802 797 # B N B N cis
4480 1 684 801 802 803 # B N B N trans
4481 1 801 684 687 686 # B N B N trans
4482 2 801 684 687 688 # B N B N cis
4483 1 685 690 689 694 # B N B N trans
4484 2 685 690 691 688 # B N B N cis
4485 1 685 690 691 692 # B N B N trans
4486 2 690 685 686 687 # B N B N cis
4487 2 685 686 687 688 # B N B N cis
4488 1 686 685 690 689 # B N B N trans
4489 2 686 685 690 691 # B N B N cis
4490 2 686 687 688 691 # B N B N cis
4491 1 686 687 688 805 # B N B N trans
4492 2 687 688 691 690 # B N B N cis
4493 1 687 688 691 692 # B N B N trans
4494 1 687 688 805 810 # B N B N trans
4495 2 687 688 805 806 # B N B N cis
4496 1 688 691 690 689 # B N B N trans
4497 1 688 691 692 695 # B N B N trans
4498 2 688 691 692 809 # B N B N cis
4499 2 691 688 805 810 # B N B N cis
4500 1 691 688 805 806 # B N B N trans
4501 2 688 805 810 809 # B N B N cis
4502 1 688 805 810 811 # B N B N trans
4503 2 688 805 806 801 # B N B N cis
4504 1 688 805 806 807 # B N B N trans
4505 1 805 688 691 690 # B N B N trans
4506 2 805 688 691 692 # B N B N cis
4507 1 689 694 693 698 # B N B N trans
4508 2 689 694 695 692 # B N B N cis
4509 1 689 694 695 696 # B N B N trans
4510 2 694 689 690 691 # B N B N cis
4511 2 689 690 691 692 # B N B N cis
4512 1 690 689 694 693 # B N B N trans
4513 2 690 689 694 695 # B N B N cis
4514 2 690 691 692 695 # B N B N cis
4515 1 690 691 692 809 # B N B N trans
4516 2 691 692 695 694 # B N B N cis
4517 1 691 692 695 696 # B N B N trans
4518 1 691 692 809 814 # B N B N trans
4519 2 691 692 809 810 # B N B N cis
4520 1 692 695 694 693 # B N B N trans
4521 1 692 695 696 699 # B N B N trans
4522 2 692 695 696 813 # B N B N cis
4523 2 695 692 809 814 # B N B N cis
4524 1 695 692 809 810 # B N B N trans
4525 2 692 809 814 813 # B N B N cis
4526 1 692 809 814 815 # B N B N trans
4527 2 692 809 810 805 # B N B N cis
4528 1 692 809 810 811 # B N B N trans
4529 1 809 692 695 694 # B N B N trans
4530 2 809 692 695 696 # B N B N cis
4531 1 693 698 697 702 # B N B N trans
4532 2 693 698 699 696 # B N B N cis
4533 1 693 698 699 700 # B N B N trans
4534 2 698 693 694 695 # B N B N cis
4535 2 693 694 695 696 # B N B N cis
4536 1 694 693 698 697 # B N B N trans
4537 2 694 693 698 699 # B N B N cis
4538 2 694 695 696 699 # B N B N cis
4539 1 694 695 696 813 # B N B N trans
4540 2 695 696 699 698 # B N B N cis
4541 1 695 696 699 700 # B N B N trans
4542 1 695 696 813 818 # B N B N trans
4543 2 695 696 813 814 # B N B N cis
4544 1 696 699 698 697 # B N B N trans
4545 1 696 699 700 703 # B N B N trans
4546 2 696 699 700 817 # B N B N cis
4547 2 699 696 813 818 # B N B N cis
4548 1 699 696 813 814 # B N B N trans
4549 2 696 813 818 817 # B N B N cis
4550 1 696 813 818 819 # B N B N trans
4551 2 696 813 814 809 # B N B N cis
4552 1 696 813 814 815 # B N B N trans
4553 1 813 696 699 698 # B N B N trans
4554 2 813 696 699 700 # B N B N cis
4555 1 697 702 701 706 # B N B N trans
4556 2 697 702 703 700 # B N B N cis
4557 1 697 702 703 704 # B N B N trans
4558 2 702 697 698 699 # B N B N cis
4559 2 697 698 699 700 # B N B N cis
4560 1 698 697 702 701 # B N B N trans
4561 2 698 697 702 703 # B N B N cis
4562 2 698 699 700 703 # B N B N cis
4563 1 698 699 700 817 # B N B N trans
4564 2 699 700 703 702 # B N B N cis
4565 1 699 700 703 704 # B N B N trans
4566 1 699 700 817 822 # B N B N trans
4567 2 699 700 817 818 # B N B N cis
4568 1 700 703 702 701 # B N B N trans
4569 1 700 703 704 707 # B N B N trans
4570 2 700 703 704 821 # B N B N cis
4571 2 703 700 817 822 # B N B N cis
4572 1 703 700 817 818 # B N B N trans
4573 2 700 817 822 821 # B N B N cis
4574 1 700 817 822 823 # B N B N trans
4575 2 700 817 818 813 # B N B N cis
4576 1 700 817 818 819 # B N B N trans
4577 1 817 700 703 702 # B N B N trans
4578 2 817 700 703 704 # B N B N cis
4579 1 701 706 705 710 # B N B N trans
4580 2 701 706 707 704 # B N B N cis
4581 1 701 706 707 708 # B N B N trans
4582 2 706 701 702 703 # B N B N cis
4583 2 701 702 703 704 # B N B N cis
4584 1 702 701 706 705 # B N B N trans
4585 2 702 701 706 707 # B N B N cis
4586 2 702 703 704 707 # B N B N cis
4587 1 702 703 704 821 # B N B N trans
4588 2 703 704 707 706 # B N B N cis
4589 1 703 704 707 708 # B N B N trans
4590 1 703 704 821 826 # B N B N trans
4591 2 703 704 821 822 # B N B N cis
4592 1 704 707 706 705 # B N B N trans
4593 1 704 707 708 711 # B N B N trans
4594 2 704 707 708 825 # B N B N cis
4595 2 707 704 821 826 # B N B N cis
4596 1 707 704 821 822 # B N B N trans
4597 2 704 821 826 825 # B N B N cis
4598 1 704 821 826 827 # B N B N trans
4599 2 704 821 822 817 # B N B N cis
4600 1 704 821 822 823 # B N B N trans
4601 1 821 704 707 706 # B N B N trans
4602 2 821 704 707 708 # B N B N cis
4603 1 705 710 709 714 # B N B N trans
4604 2 705 710 711 708 # B N B N cis
4605 1 705 710 711 712 # B N B N trans
4606 2 710 705 706 707 # B N B N cis
4607 2 705 706 707 708 # B N B N cis
4608 1 706 705 710 709 # B N B N trans
4609 2 706 705 710 711 # B N B N cis
4610 2 706 707 708 711 # B N B N cis
4611 1 706 707 708 825 # B N B N trans
4612 2 707 708 711 710 # B N B N cis
4613 1 707 708 711 712 # B N B N trans
4614 1 707 708 825 830 # B N B N trans
4615 2 707 708 825 826 # B N B N cis
4616 1 708 711 710 709 # B N B N trans
4617 1 708 711 712 715 # B N B N trans
4618 2 708 711 712 829 # B N B N cis
4619 2 711 708 825 830 # B N B N cis
4620 1 711 708 825 826 # B N B N trans
4621 2 708 825 830 829 # B N B N cis
4622 1 708 825 830 831 # B N B N trans
4623 2 708 825 826 821 # B N B N cis
4624 1 708 825 826 827 # B N B N trans
4625 1 825 708 711 710 # B N B N trans
4626 2 825 708 711 712 # B N B N cis
4627 1 709 714 713 718 # B N B N trans
4628 2 709 714 715 712 # B N B N cis
4629 1 709 714 715 716 # B N B N trans
4630 2 714 709 710 711 # B N B N cis
4631 2 709 710 711 712 # B N B N cis
4632 1 710 709 714 713 # B N B N trans
4633 2 710 709 714 715 # B N B N cis
4634 2 710 711 712 715 # B N B N cis
4635 1 710 711 712 829 # B N B N trans
4636 2 711 712 715 714 # B N B N cis
4637 1 711 712 715 716 # B N B N trans
4638 1 711 712 829 834 # B N B N trans
4639 2 711 712 829 830 # B N B N cis
4640 1 712 715 714 713 # B N B N trans
4641 1 712 715 716 719 # B N B N trans
4642 2 712 715 716 833 # B N B N cis
4643 2 715 712 829 834 # B N B N cis
4644 1 715 712 829 830 # B N B N trans
4645 2 712 829 834 833 # B N B N cis
4646 1 712 829 834 835 # B N B N trans
4647 2 712 829 830 825 # B N B N cis
4648 1 712 829 830 831 # B N B N trans
4649 1 829 712 715 714 # B N B N trans
4650 2 829 712 715 716 # B N B N cis
4651 2 713 718 719 716 # B N B N cis
4652 1 713 718 719 720 # B N B N trans
4653 2 718 713 714 715 # B N B N cis
4654 2 713 714 715 716 # B N B N cis
4655 1 714 713 718 717 # B N B N trans
4656 2 714 713 718 719 # B N B N cis
4657 2 714 715 716 719 # B N B N cis
4658 1 714 715 716 833 # B N B N trans
4659 2 715 716 719 718 # B N B N cis
4660 1 715 716 719 720 # B N B N trans
4661 1 715 716 833 838 # B N B N trans
4662 2 715 716 833 834 # B N B N cis
4663 1 716 719 718 717 # B N B N trans
4664 2 716 719 720 837 # B N B N cis
4665 2 719 716 833 838 # B N B N cis
4666 1 719 716 833 834 # B N B N trans
4667 2 716 833 838 837 # B N B N cis
4668 1 716 833 838 839 # B N B N trans
4669 2 716 833 834 829 # B N B N cis
4670 1 716 833 834 835 # B N B N trans
4671 1 833 716 719 718 # B N B N trans
4672 2 833 716 719 720 # B N B N cis
4673 2 717 718 719 720 # B N B N cis
4674 1 718 719 720 837 # B N B N trans
4675 1 719 720 837 722 # B N B N trans
4676 2 719 720 837 838 # B N B N cis
4677 2 720 837 722 721 # B N B N cis
4678 1 720 837 722 723 # B N B N trans
4679 2 720 837 838 833 # B N B N cis
4680 1 720 837 838 839 # B N B N trans
4681 1 721 726 725 730 # B N B N trans
4682 2 721 726 727 724 # B N B N cis
4683 1 721 726 727 728 # B N B N trans
4684 1 726 721 722 837 # B N B N trans
4685 2 726 721 722 723 # B N B N cis
4686 1 721 722 837 838 # B N B N trans
4687 2 721 722 723 724 # B N B N cis
4688 1 721 722 723 840 # B N B N trans
4689 1 722 721 726 725 # B N B N trans
4690 2 722 721 726 727 # B N B N cis
4691 1 722 837 838 833 # B N B N trans
4692 2 722 837 838 839 # B N B N cis
4693 1 837 722 723 724 # B N B N trans
4694 2 837 722 723 840 # B N B N cis
4695 2 722 723 724 727 # B N B N cis
4696 1 722 723 724 841 # B N B N trans
4697 2 722 723 840 839 # B N B N cis
4698 1 722 723 840 957 # B N B N trans
4699 2 723 722 837 838 # B N B N cis
4700 2 723 724 727 726 # B N B N cis
4701 1 723 724 727 728 # B N B N trans
4702 1 723 724 841 846 # B N B N trans
4703 2 723 724 841 842 # B N B N cis
4704 1 724 723 840 839 # B N B N trans
4705 2 724 723 840 957 # B N B N cis
4706 2 723 840 839 838 # B N B N cis
4707 1 723 840 839 836 # B N B N trans
4708 2 723 840 957 842 # B N B N cis
4709 1 723 840 957 958 # B N B N trans
4710 1 840 723 724 727 # B N B N trans
4711 2 840 723 724 841 # B N B N cis
4712 1 724 727 726 725 # B N B N trans
4713 1 724 727 728 731 # B N B N trans
4714 2 724 727 728 845 # B N B N cis
4715 2 727 724 841 846 # B N B N cis
4716 1 727 724 841 842 # B N B N trans
4717 2 724 841 846 845 # B N B N cis
4718 1 724 841 846 847 # B N B N trans
4719 2 724 841 842 957 # B N B N cis
4720 1 724 841 842 843 # B N B N trans
4721 1 841 724 727 726 # B N B N trans
4722 2 841 724 727 728 # B N B N cis
4723 1 725 730 729 734 # B N B N trans
4724 2 725 730 731 728 # B N B N cis
4725 1 725 730 731 732 # B N B N trans
4726 2 730 725 726 727 # B N B N cis
4727 2 725 726 727 728 # B N B N cis
4728 1 726 725 730 729 # B N B N trans
4729 2 726 725 730 731 # B N B N cis
4730 2 726 727 728 731 # B N B N cis
4731 1 726 727 728 845 # B N B N trans
4732 2 727 728 731 730 # B N B N cis
4733 1 727 728 731 732 # B N B N trans
4734 1 727 728 845 850 # B N B N trans
4735 2 727 728 845 846 # B N B N cis
4736 1 728 731 730 729 # B N B N trans
4737 1 728 731 732 735 # B N B N trans
4738 2 728 731 732 849 # B N B N cis
4739 2 731 728 845 850 # B N B N cis
4740 1 731 728 845 846 # B N B N trans
4741 2 728 845 850 849 # B N B N cis
4742 1 728 845 850 851 # B N B N trans
4743 2 728 845 846 841 # B N B N cis
4744 1 728 845 846 847 # B N B N trans
4745 1 845 728 731 730 # B N B N trans
4746 2 845 728 731 732 # B N B N cis
4747 1 729 734 733 738 # B N B N trans
4748 2 729 734 735 732 # B N B N cis
4749 1 729 734 735 736 # B N B N trans
4750 2 734 729 730 731 # B N B N cis
4751 2 729 730 731 732 # B N B N cis
4752 1 730 729 734 733 # B N B N trans
4753 2 730 729 734 735 # B N B N cis
4754 2 730 731 732 735 # B N B N cis
4755 1 730 731 732 849 # B N B N trans
4756 2 731 732 735 734 # B N B N cis
4757 1 731 732 735 736 # B N B N trans
4758 1 731 732 849 854 # B N B N trans
4759 2 731 732 849 850 # B N B N cis
4760 1 732 735 734 733 # B N B N trans
4761 1 732 735 736 739 # B N B N trans
4762 2 732 735 736 853 # B N B N cis
4763 2 735 732 849 854 # B N B N cis
4764 1 735 732 849 850 # B N B N trans
4765 2 732 849 854 853 # B N B N cis
4766 1 732 849 854 855 # B N B N trans
4767 2 732 849 850 845 # B N B N cis
4768 1 732 849 850 851 # B N B N trans
4769 1 849 732 735 734 # B N B N trans
4770 2 849 732 735 736 # B N B N cis
4771 1 733 738 737 742 # B N B N trans
4772 2 733 738 739 736 # B N B N cis
4773 1 733 738 739 740 # B N B N trans
4774 2 738 733 734 735 # B N B N cis
4775 2 733 734 735 736 # B N B N cis
4776 1 734 733 738 737 # B N B N trans
4777 2 734 733 738 739 # B N B N cis
4778 2 734 735 736 739 # B N B N cis
4779 1 734 735 736 853 # B N B N trans
4780 2 735 736 739 738 # B N B N cis
4781 1 735 736 739 740 # B N B N trans
4782 1 735 736 853 858 # B N B N trans
4783 2 735 736 853 854 # B N B N cis
4784 1 736 739 738 737 # B N B N trans
4785 1 736 739 740 743 # B N B N trans
4786 2 736 739 740 857 # B N B N cis
4787 2 739 736 853 858 # B N B N cis
4788 1 739 736 853 854 # B N B N trans
4789 2 736 853 858 857 # B N B N cis
4790 1 736 853 858 859 # B N B N trans
4791 2 736 853 854 849 # B N B N cis
4792 1 736 853 854 855 # B N B N trans
4793 1 853 736 739 738 # B N B N trans
4794 2 853 736 739 740 # B N B N cis
4795 1 737 742 741 746 # B N B N trans
4796 2 737 742 743 740 # B N B N cis
4797 1 737 742 743 744 # B N B N trans
4798 2 742 737 738 739 # B N B N cis
4799 2 737 738 739 740 # B N B N cis
4800 1 738 737 742 741 # B N B N trans
4801 2 738 737 742 743 # B N B N cis
4802 2 738 739 740 743 # B N B N cis
4803 1 738 739 740 857 # B N B N trans
4804 2 739 740 743 742 # B N B N cis
4805 1 739 740 743 744 # B N B N trans
4806 1 739 740 857 862 # B N B N trans
4807 2 739 740 857 858 # B N B N cis
4808 1 740 743 742 741 # B N B N trans
4809 1 740 743 744 747 # B N B N trans
4810 2 740 743 744 861 # B N B N cis
4811 2 743 740 857 862 # B N B N cis
4812 1 743 740 857 858 # B N B N trans
4813 2 740 857 862 861 # B N B N cis
4814 1 740 857 862 863 # B N B N trans
4815 2 740 857 858 853 # B N B N cis
4816 1 740 857 858 859 # B N B N trans
4817 1 857 740 743 742 # B N B N trans
4818 2 857 740 743 744 # B N B N cis
4819 1 741 746 745 750 # B N B N trans
4820 2 741 746 747 744 # B N B N cis
4821 1 741 746 747 748 # B N B N trans
4822 2 746 741 742 743 # B N B N cis
4823 2 741 742 743 744 # B N B N cis
4824 1 742 741 746 745 # B N B N trans
4825 2 742 741 746 747 # B N B N cis
4826 2 742 743 744 747 # B N B N cis
4827 1 742 743 744 861 # B N B N trans
4828 2 743 744 747 746 # B N B N cis
4829 1 743 744 747 748 # B N B N trans
4830 1 743 744 861 866 # B N B N trans
4831 2 743 744 861 862 # B N B N cis
4832 1 744 747 746 745 # B N B N trans
4833 1 744 747 748 751 # B N B N trans
4834 2 744 747 748 865 # B N B N cis
4835 2 747 744 861 866 # B N B N cis
4836 1 747 744 861 862 # B N B N trans
4837 2 744 861 866 865 # B N B N cis
4838 1 744 861 866 867 # B N B N trans
4839 2 744 861 862 857 # B N B N cis
4840 1 744 861 862 863 # B N B N trans
4841 1 861 744 747 746 # B N B N trans
4842 2 861 744 747 748 # B N B N cis
4843 1 745 750 749 754 # B N B N trans
4844 2 745 750 751 748 # B N B N cis
4845 1 745 750 751 752 # B N B N trans
4846 2 750 745 746 747 # B N B N cis
4847 2 745 746 747 748 # B N B N cis
4848 1 746 745 750 749 # B N B N trans
4849 2 746 745 750 751 # B N B N cis
4850 2 746 747 748 751 # B N B N cis
4851 1 746 747 748 865 # B N B N trans
4852 2 747 748 751 750 # B N B N cis
4853 1 747 748 751 752 # B N B N trans
4854 1 747 748 865 870 # B N B N trans
4855 2 747 748 865 866 # B N B N cis
4856 1 748 751 750 749 # B N B N trans
4857 1 748 751 752 755 # B N B N trans
4858 2 748 751 752 869 # B N B N cis
4859 2 751 748 865 870 # B N B N cis
4860 1 751 748 865 866 # B N B N trans
4861 2 748 865 870 869 # B N B N cis
4862 1 748 865 870 871 # B N B N trans
4863 2 748 865 866 861 # B N B N cis
4864 1 748 865 866 867 # B N B N trans
4865 1 865 748 751 750 # B N B N trans
4866 2 865 748 751 752 # B N B N cis
4867 1 749 754 753 758 # B N B N trans
4868 2 749 754 755 752 # B N B N cis
4869 1 749 754 755 756 # B N B N trans
4870 2 754 749 750 751 # B N B N cis
4871 2 749 750 751 752 # B N B N cis
4872 1 750 749 754 753 # B N B N trans
4873 2 750 749 754 755 # B N B N cis
4874 2 750 751 752 755 # B N B N cis
4875 1 750 751 752 869 # B N B N trans
4876 2 751 752 755 754 # B N B N cis
4877 1 751 752 755 756 # B N B N trans
4878 1 751 752 869 874 # B N B N trans
4879 2 751 752 869 870 # B N B N cis
4880 1 752 755 754 753 # B N B N trans
4881 1 752 755 756 759 # B N B N trans
4882 2 752 755 756 873 # B N B N cis
4883 2 755 752 869 874 # B N B N cis
4884 1 755 752 869 870 # B N B N trans
4885 2 752 869 874 873 # B N B N cis
4886 1 752 869 874 875 # B N B N trans
4887 2 752 869 870 865 # B N B N cis
4888 1 752 869 870 871 # B N B N trans
4889 1 869 752 755 754 # B N B N trans
4890 2 869 752 755 756 # B N B N cis
4891 1 753 758 757 762 # B N B N trans
4892 2 753 758 759 756 # B N B N cis
4893 1 753 758 759 760 # B N B N trans
4894 2 758 753 754 755 # B N B N cis
4895 2 753 754 755 756 # B N B N cis
4896 1 754 753 758 757 # B N B N trans
4897 2 754 753 758 759 # B N B N cis
4898 2 754 755 756 759 # B N B N cis
4899 1 754 755 756 873 # B N B N trans
4900 2 755 756 759 758 # B N B N cis
4901 1 755 756 759 760 # B N B N trans
4902 1 755 756 873 878 # B N B N trans
4903 2 755 756 873 874 # B N B N cis
4904 1 756 759 758 757 # B N B N trans
4905 1 756 759 760 763 # B N B N trans
4906 2 756 759 760 877 # B N B N cis
4907 2 759 756 873 878 # B N B N cis
4908 1 759 756 873 874 # B N B N trans
4909 2 756 873 878 877 # B N B N cis
4910 1 756 873 878 879 # B N B N trans
4911 2 756 873 874 869 # B N B N cis
4912 1 756 873 874 875 # B N B N trans
4913 1 873 756 759 758 # B N B N trans
4914 2 873 756 759 760 # B N B N cis
4915 1 757 762 761 766 # B N B N trans
4916 2 757 762 763 760 # B N B N cis
4917 1 757 762 763 764 # B N B N trans
4918 2 762 757 758 759 # B N B N cis
4919 2 757 758 759 760 # B N B N cis
4920 1 758 757 762 761 # B N B N trans
4921 2 758 757 762 763 # B N B N cis
4922 2 758 759 760 763 # B N B N cis
4923 1 758 759 760 877 # B N B N trans
4924 2 759 760 763 762 # B N B N cis
4925 1 759 760 763 764 # B N B N trans
4926 1 759 760 877 882 # B N B N trans
4927 2 759 760 877 878 # B N B N cis
4928 1 760 763 762 761 # B N B N trans
4929 1 760 763 764 767 # B N B N trans
4930 2 760 763 764 881 # B N B N cis
4931 2 763 760 877 882 # B N B N cis
4932 1 763 760 877 878 # B N B N trans
4933 2 760 877 882 881 # B N B N cis
4934 1 760 877 882 883 # B N B N trans
4935 2 760 877 878 873 # B N B N cis
4936 1 760 877 878 879 # B N B N trans
4937 1 877 760 763 762 # B N B N trans
4938 2 877 760 763 764 # B N B N cis
4939 1 761 766 765 770 # B N B N trans
4940 2 761 766 767 764 # B N B N cis
4941 1 761 766 767 768 # B N B N trans
4942 2 766 761 762 763 # B N B N cis
4943 2 761 762 763 764 # B N B N cis
4944 1 762 761 766 765 # B N B N trans
4945 2 762 761 766 767 # B N B N cis
4946 2 762 763 764 767 # B N B N cis
4947 1 762 763 764 881 # B N B N trans
4948 2 763 764 767 766 # B N B N cis
4949 1 763 764 767 768 # B N B N trans
4950 1 763 764 881 886 # B N B N trans
4951 2 763 764 881 882 # B N B N cis
4952 1 764 767 766 765 # B N B N trans
4953 1 764 767 768 771 # B N B N trans
4954 2 764 767 768 885 # B N B N cis
4955 2 767 764 881 886 # B N B N cis
4956 1 767 764 881 882 # B N B N trans
4957 2 764 881 886 885 # B N B N cis
4958 1 764 881 886 887 # B N B N trans
4959 2 764 881 882 877 # B N B N cis
4960 1 764 881 882 883 # B N B N trans
4961 1 881 764 767 766 # B N B N trans
4962 2 881 764 767 768 # B N B N cis
4963 1 765 770 769 774 # B N B N trans
4964 2 765 770 771 768 # B N B N cis
4965 1 765 770 771 772 # B N B N trans
4966 2 770 765 766 767 # B N B N cis
4967 2 765 766 767 768 # B N B N cis
4968 1 766 765 770 769 # B N B N trans
4969 2 766 765 770 771 # B N B N cis
4970 2 766 767 768 771 # B N B N cis
4971 1 766 767 768 885 # B N B N trans
4972 2 767 768 771 770 # B N B N cis
4973 1 767 768 771 772 # B N B N trans
4974 1 767 768 885 890 # B N B N trans
4975 2 767 768 885 886 # B N B N cis
4976 1 768 771 770 769 # B N B N trans
4977 1 768 771 772 775 # B N B N trans
4978 2 768 771 772 889 # B N B N cis
4979 2 771 768 885 890 # B N B N cis
4980 1 771 768 885 886 # B N B N trans
4981 2 768 885 890 889 # B N B N cis
4982 1 768 885 890 891 # B N B N trans
4983 2 768 885 886 881 # B N B N cis
4984 1 768 885 886 887 # B N B N trans
4985 1 885 768 771 770 # B N B N trans
4986 2 885 768 771 772 # B N B N cis
4987 1 769 774 773 778 # B N B N trans
4988 2 769 774 775 772 # B N B N cis
4989 1 769 774 775 776 # B N B N trans
4990 2 774 769 770 771 # B N B N cis
4991 2 769 770 771 772 # B N B N cis
4992 1 770 769 774 773 # B N B N trans
4993 2 770 769 774 775 # B N B N cis
4994 2 770 771 772 775 # B N B N cis
4995 1 770 771 772 889 # B N B N trans
4996 2 771 772 775 774 # B N B N cis
4997 1 771 772 775 776 # B N B N trans
4998 1 771 772 889 894 # B N B N trans
4999 2 771 772 889 890 # B N B N cis
5000 1 772 775 774 773 # B N B N trans
5001 1 772 775 776 779 # B N B N trans
5002 2 772 775 776 893 # B N B N cis
5003 2 775 772 889 894 # B N B N cis
5004 1 775 772 889 890 # B N B N trans
5005 2 772 889 894 893 # B N B N cis
5006 1 772 889 894 895 # B N B N trans
5007 2 772 889 890 885 # B N B N cis
5008 1 772 889 890 891 # B N B N trans
5009 1 889 772 775 774 # B N B N trans
5010 2 889 772 775 776 # B N B N cis
5011 1 773 778 777 782 # B N B N trans
5012 2 773 778 779 776 # B N B N cis
5013 1 773 778 779 780 # B N B N trans
5014 2 778 773 774 775 # B N B N cis
5015 2 773 774 775 776 # B N B N cis
5016 1 774 773 778 777 # B N B N trans
5017 2 774 773 778 779 # B N B N cis
5018 2 774 775 776 779 # B N B N cis
5019 1 774 775 776 893 # B N B N trans
5020 2 775 776 779 778 # B N B N cis
5021 1 775 776 779 780 # B N B N trans
5022 1 775 776 893 898 # B N B N trans
5023 2 775 776 893 894 # B N B N cis
5024 1 776 779 778 777 # B N B N trans
5025 1 776 779 780 783 # B N B N trans
5026 2 776 779 780 897 # B N B N cis
5027 2 779 776 893 898 # B N B N cis
5028 1 779 776 893 894 # B N B N trans
5029 2 776 893 898 897 # B N B N cis
5030 1 776 893 898 899 # B N B N trans
5031 2 776 893 894 889 # B N B N cis
5032 1 776 893 894 895 # B N B N trans
5033 1 893 776 779 778 # B N B N trans
5034 2 893 776 779 780 # B N B N cis
5035 1 777 782 781 786 # B N B N trans
5036 2 777 782 783 780 # B N B N cis
5037 1 777 782 783 784 # B N B N trans
5038 2 782 777 778 779 # B N B N cis
5039 2 777 778 779 780 # B N B N cis
5040 1 778 777 782 781 # B N B N trans
5041 2 778 777 782 783 # B N B N cis
5042 2 778 779 780 783 # B N B N cis
5043 1 778 779 780 897 # B N B N trans
5044 2 779 780 783 782 # B N B N cis
5045 1 779 780 783 784 # B N B N trans
5046 1 779 780 897 902 # B N B N trans
5047 2 779 780 897 898 # B N B N cis
5048 1 780 783 782 781 # B N B N trans
5049 1 780 783 784 787 # B N B N trans
5050 2 780 783 784 901 # B N B N cis
5051 2 783 780 897 902 # B N B N cis
5052 1 783 780 897 898 # B N B N trans
5053 2 780 897 902 901 # B N B N cis
5054 1 780 897 902 903 # B N B N trans
5055 2 780 897 898 893 # B N B N cis
5056 1 780 897 898 899 # B N B N trans
5057 1 897 780 783 782 # B N B N trans
5058 2 897 780 783 784 # B N B N cis
5059 1 781 786 785 790 # B N B N trans
5060 2 781 786 787 784 # B N B N cis
5061 1 781 786 787 788 # B N B N trans
5062 2 786 781 782 783 # B N B N cis
5063 2 781 782 783 784 # B N B N cis
5064 1 782 781 786 785 # B N B N trans
5065 2 782 781 786 787 # B N B N cis
5066 2 782 783 784 787 # B N B N cis
5067 1 782 783 784 901 # B N B N trans
5068 2 783 784 787 786 # B N B N cis
5069 1 783 784 787 788 # B N B N trans
5070 1 783 784 901 906 # B N B N trans
5071 2 783 784 901 902 # B N B N cis
5072 1 784 787 786 785 # B N B N trans
5073 1 784 787 788 791 # B N B N trans
5074 2 784 787 788 905 # B N B N cis
5075 2 787 784 901 906 # B N B N cis
5076 1 787 784 901 902 # B N B N trans
5077 2 784 901 906 905 # B N B N cis
5078 1 784 901 906 907 # B N B N trans
5079 2 784 901 902 897 # B N B N cis
5080 1 784 901 902 903 # B N B N trans
5081 1 901 784 787 786 # B N B N trans
5082 2 901 784 787 788 # B N B N cis
5083 1 785 790 789 794 # B N B N trans
5084 2 785 790 791 788 # B N B N cis
5085 1 785 790 791 792 # B N B N trans
5086 2 790 785 786 787 # B N B N cis
5087 2 785 786 787 788 # B N B N cis
5088 1 786 785 790 789 # B N B N trans
5089 2 786 785 790 791 # B N B N cis
5090 2 786 787 788 791 # B N B N cis
5091 1 786 787 788 905 # B N B N trans
5092 2 787 788 791 790 # B N B N cis
5093 1 787 788 791 792 # B N B N trans
5094 1 787 788 905 910 # B N B N trans
5095 2 787 788 905 906 # B N B N cis
5096 1 788 791 790 789 # B N B N trans
5097 1 788 791 792 795 # B N B N trans
5098 2 788 791 792 909 # B N B N cis
5099 2 791 788 905 910 # B N B N cis
5100 1 791 788 905 906 # B N B N trans
5101 2 788 905 910 909 # B N B N cis
5102 1 788 905 910 911 # B N B N trans
5103 2 788 905 906 901 # B N B N cis
5104 1 788 905 906 907 # B N B N trans
5105 1 905 788 791 790 # B N B N trans
5106 2 905 788 791 792 # B N B N cis
5107 1 789 794 793 798 # B N B N trans
5108 2 789 794 795 792 # B N B N cis
5109 1 789 794 795 796 # B N B N trans
5110 2 794 789 790 791 # B N B N cis
5111 2 789 790 791 792 # B N B N cis
5112 1 790 789 794 793 # B N B N trans
5113 2 790 789 794 795 # B N B N cis
5114 2 790 791 792 795 # B N B N cis
5115 1 790 791 792 909 # B N B N trans
5116 2 791 792 795 794 # B N B N cis
5117 1 791 792 795 796 # B N B N trans
5118 1 791 792 909 914 # B N B N trans
5119 2 791 792 909 910 # B N B N cis
5120 1 792 795 794 793 # B N B N trans
5121 1 792 795 796 799 # B N B N trans
5122 2 792 795 796 913 # B N B N cis
5123 2 795 792 909 914 # B N B N cis
5124 1 795 792 909 910 # B N B N trans
5125 2 792 909 914 913 # B N B N cis
5126 1 792 909 914 915 # B N B N trans
5127 2 792 909 910 905 # B N B N cis
5128 1 792 909 910 911 # B N B N trans
5129 1 909 792 795 794 # B N B N trans
5130 2 909 792 795 796 # B N B N cis
5131 1 793 798 797 802 # B N B N trans
5132 2 793 798 799 796 # B N B N cis
5133 1 793 798 799 800 # B N B N trans
5134 2 798 793 794 795 # B N B N cis
5135 2 793 794 795 796 # B N B N cis
5136 1 794 793 798 797 # B N B N trans
5137 2 794 793 798 799 # B N B N cis
5138 2 794 795 796 799 # B N B N cis
5139 1 794 795 796 913 # B N B N trans
5140 2 795 796 799 798 # B N B N cis
5141 1 795 796 799 800 # B N B N trans
5142 1 795 796 913 918 # B N B N trans
5143 2 795 796 913 914 # B N B N cis
5144 1 796 799 798 797 # B N B N trans
5145 1 796 799 800 803 # B N B N trans
5146 2 796 799 800 917 # B N B N cis
5147 2 799 796 913 918 # B N B N cis
5148 1 799 796 913 914 # B N B N trans
5149 2 796 913 918 917 # B N B N cis
5150 1 796 913 918 919 # B N B N trans
5151 2 796 913 914 909 # B N B N cis
5152 1 796 913 914 915 # B N B N trans
5153 1 913 796 799 798 # B N B N trans
5154 2 913 796 799 800 # B N B N cis
5155 1 797 802 801 806 # B N B N trans
5156 2 797 802 803 800 # B N B N cis
5157 1 797 802 803 804 # B N B N trans
5158 2 802 797 798 799 # B N B N cis
5159 2 797 798 799 800 # B N B N cis
5160 1 798 797 802 801 # B N B N trans
5161 2 798 797 802 803 # B N B N cis
5162 2 798 799 800 803 # B N B N cis
5163 1 798 799 800 917 # B N B N trans
5164 2 799 800 803 802 # B N B N cis
5165 1 799 800 803 804 # B N B N trans
5166 1 799 800 917 922 # B N B N trans
5167 2 799 800 917 918 # B N B N cis
5168 1 800 803 802 801 # B N B N trans
5169 1 800 803 804 807 # B N B N trans
5170 2 800 803 804 921 # B N B N cis
5171 2 803 800 917 922 # B N B N cis
5172 1 803 800 917 918 # B N B N trans
5173 2 800 917 922 921 # B N B N cis
5174 1 800 917 922 923 # B N B N trans
5175 2 800 917 918 913 # B N B N cis
5176 1 800 917 918 919 # B N B N trans
5177 1 917 800 803 802 # B N B N trans
5178 2 917 800 803 804 # B N B N cis
5179 1 801 806 805 810 # B N B N trans
5180 2 801 806 807 804 # B N B N cis
5181 1 801 806 807 808 # B N B N trans
5182 2 806 801 802 803 # B N B N cis
5183 2 801 802 803 804 # B N B N cis
5184 1 802 801 806 805 # B N B N trans
5185 2 802 801 806 807 # B N B N cis
5186 2 802 803 804 807 # B N B N cis
5187 1 802 803 804 921 # B N B N trans
5188 2 803 804 807 806 # B N B N cis
5189 1 803 804 807 808 # B N B N trans
5190 1 803 804 921 926 # B N B N trans
5191 2 803 804 921 922 # B N B N cis
5192 1 804 807 806 805 # B N B N trans
5193 1 804 807 808 811 # B N B N trans
5194 2 804 807 808 925 # B N B N cis
5195 2 807 804 921 926 # B N B N cis
5196 1 807 804 921 922 # B N B N trans
5197 2 804 921 926 925 # B N B N cis
5198 1 804 921 926 927 # B N B N trans
5199 2 804 921 922 917 # B N B N cis
5200 1 804 921 922 923 # B N B N trans
5201 1 921 804 807 806 # B N B N trans
5202 2 921 804 807 808 # B N B N cis
5203 1 805 810 809 814 # B N B N trans
5204 2 805 810 811 808 # B N B N cis
5205 1 805 810 811 812 # B N B N trans
5206 2 810 805 806 807 # B N B N cis
5207 2 805 806 807 808 # B N B N cis
5208 1 806 805 810 809 # B N B N trans
5209 2 806 805 810 811 # B N B N cis
5210 2 806 807 808 811 # B N B N cis
5211 1 806 807 808 925 # B N B N trans
5212 2 807 808 811 810 # B N B N cis
5213 1 807 808 811 812 # B N B N trans
5214 1 807 808 925 930 # B N B N trans
5215 2 807 808 925 926 # B N B N cis
5216 1 808 811 810 809 # B N B N trans
5217 1 808 811 812 815 # B N B N trans
5218 2 808 811 812 929 # B N B N cis
5219 2 811 808 925 930 # B N B N cis
5220 1 811 808 925 926 # B N B N trans
5221 2 808 925 930 929 # B N B N cis
5222 1 808 925 930 931 # B N B N trans
5223 2 808 925 926 921 # B N B N cis
5224 1 808 925 926 927 # B N B N trans
5225 1 925 808 811 810 # B N B N trans
5226 2 925 808 811 812 # B N B N cis
5227 1 809 814 813 818 # B N B N trans
5228 2 809 814 815 812 # B N B N cis
5229 1 809 814 815 816 # B N B N trans
5230 2 814 809 810 811 # B N B N cis
5231 2 809 810 811 812 # B N B N cis
5232 1 810 809 814 813 # B N B N trans
5233 2 810 809 814 815 # B N B N cis
5234 2 810 811 812 815 # B N B N cis
5235 1 810 811 812 929 # B N B N trans
5236 2 811 812 815 814 # B N B N cis
5237 1 811 812 815 816 # B N B N trans
5238 1 811 812 929 934 # B N B N trans
5239 2 811 812 929 930 # B N B N cis
5240 1 812 815 814 813 # B N B N trans
5241 1 812 815 816 819 # B N B N trans
5242 2 812 815 816 933 # B N B N cis
5243 2 815 812 929 934 # B N B N cis
5244 1 815 812 929 930 # B N B N trans
5245 2 812 929 934 933 # B N B N cis
5246 1 812 929 934 935 # B N B N trans
5247 2 812 929 930 925 # B N B N cis
5248 1 812 929 930 931 # B N B N trans
5249 1 929 812 815 814 # B N B N trans
5250 2 929 812 815 816 # B N B N cis
5251 1 813 818 817 822 # B N B N trans
5252 2 813 818 819 816 # B N B N cis
5253 1 813 818 819 820 # B N B N trans
5254 2 818 813 814 815 # B N B N cis
5255 2 813 814 815 816 # B N B N cis
5256 1 814 813 818 817 # B N B N trans
5257 2 814 813 818 819 # B N B N cis
5258 2 814 815 816 819 # B N B N cis
5259 1 814 815 816 933 # B N B N trans
5260 2 815 816 819 818 # B N B N cis
5261 1 815 816 819 820 # B N B N trans
5262 1 815 816 933 938 # B N B N trans
5263 2 815 816 933 934 # B N B N cis
5264 1 816 819 818 817 # B N B N trans
5265 1 816 819 820 823 # B N B N trans
5266 2 816 819 820 937 # B N B N cis
5267 2 819 816 933 938 # B N B N cis
5268 1 819 816 933 934 # B N B N trans
5269 2 816 933 938 937 # B N B N cis
5270 1 816 933 938 939 # B N B N trans
5271 2 816 933 934 929 # B N B N cis
5272 1 816 933 934 935 # B N B N trans
5273 1 933 816 819 818 # B N B N trans
5274 2 933 816 819 820 # B N B N cis
5275 1 817 822 821 826 # B N B N trans
5276 2 817 822 823 820 # B N B N cis
5277 1 817 822 823 824 # B N B N trans
5278 2 822 817 818 819 # B N B N cis
5279 2 817 818 819 820 # B N B N cis
5280 1 818 817 822 821 # B N B N trans
5281 2 818 817 822 823 # B N B N cis
5282 2 818 819 820 823 # B N B N cis
5283 1 818 819 820 937 # B N B N trans
5284 2 819 820 823 822 # B N B N cis
5285 1 819 820 823 824 # B N B N trans
5286 1 819 820 937 942 # B N B N trans
5287 2 819 820 937 938 # B N B N cis
5288 1 820 823 822 821 # B N B N trans
5289 1 820 823 824 827 # B N B N trans
5290 2 820 823 824 941 # B N B N cis
5291 2 823 820 937 942 # B N B N cis
5292 1 823 820 937 938 # B N B N trans
5293 2 820 937 942 941 # B N B N cis
5294 1 820 937 942 943 # B N B N trans
5295 2 820 937 938 933 # B N B N cis
5296 1 820 937 938 939 # B N B N trans
5297 1 937 820 823 822 # B N B N trans
5298 2 937 820 823 824 # B N B N cis
5299 1 821 826 825 830 # B N B N trans
5300 2 821 826 827 824 # B N B N cis
5301 1 821 826 827 828 # B N B N trans
5302 2 826 821 822 823 # B N B N cis
5303 2 821 822 823 824 # B N B N cis
5304 1 822 821 826 825 # B N B N trans
5305 2 822 821 826 827 # B N B N cis
5306 2 822 823 824 827 # B N B N cis
5307 1 822 823 824 941 # B N B N trans
5308 2 823 824 827 826 # B N B N cis
5309 1 823 824 827 828 # B N B N trans
5310 1 823 824 941 946 # B N B N trans
5311 2 823 824 941 942 # B N B N cis
5312 1 824 827 826 825 # B N B N trans
5313 1 824 827 828 831 # B N B N trans
5314 2 824 827 828 945 # B N B N cis
5315 2 827 824 941 946 # B N B N cis
5316 1 827 824 941 942 # B N B N trans
5317 2 824 941 946 945 # B N B N cis
5318 1 824 941 946 947 # B N B N trans
5319 2 824 941 942 937 # B N B N cis
5320 1 824 941 942 943 # B N B N trans
5321 1 941 824 827 826 # B N B N trans
5322 2 941 824 827 828 # B N B N cis
5323 1 825 830 829 834 # B N B N trans
5324 2 825 830 831 828 # B N B N cis
5325 1 825 830 831 832 # B N B N trans
5326 2 830 825 826 827 # B N B N cis
5327 2 825 826 827 828 # B N B N cis
5328 1 826 825 830 829 # B N B N trans
5329 2 826 825 830 831 # B N B N cis
5330 2 826 827 828 831 # B N B N cis
5331 1 826 827 828 945 # B N B N trans
5332 2 827 828 831 830 # B N B N cis
5333 1 827 828 831 832 # B N B N trans
5334 1 827 828 945 950 # B N B N trans
5335 2 827 828 945 946 # B N B N cis
5336 1 828 831 830 829 # B N B N trans
5337 1 828 831 832 835 # B N B N trans
5338 2 828 831 832 949 # B N B N cis
5339 2 831 828 945 950 # B N B N cis
5340 1 831 828 945 946 # B N B N trans
5341 2 828 945 950 949 # B N B N cis
5342 1 828 945 950 951 # B N B N trans
5343 2 828 945 946 941 # B N B N cis
5344 1 828 945 946 947 # B N B N trans
5345 1 945 828 831 830 # B N B N trans
5346 2 945 828 831 832 # B N B N cis
5347 1 829 834 833 838 # B N B N trans
5348 2 829 834 835 832 # B N B N cis
5349 1 829 834 835 836 # B N B N trans
5350 2 834 829 830 831 # B N B N cis
5351 2 829 830 831 832 # B N B N cis
5352 1 830 829 834 833 # B N B N trans
5353 2 830 829 834 835 # B N B N cis
5354 2 830 831 832 835 # B N B N cis
5355 1 830 831 832 949 # B N B N trans
5356 2 831 832 835 834 # B N B N cis
5357 1 831 832 835 836 # B N B N trans
5358 1 831 832 949 954 # B N B N trans
5359 2 831 832 949 950 # B N B N cis
5360 1 832 835 834 833 # B N B N trans
5361 1 832 835 836 839 # B N B N trans
5362 2 832 835 836 953 # B N B N cis
5363 2 835 832 949 954 # B N B N cis
5364 1 835 832 949 950 # B N B N trans
5365 2 832 949 954 953 # B N B N cis
5366 1 832 949 954 955 # B N B N trans
5367 2 832 949 950 945 # B N B N cis
5368 1 832 949 950 951 # B N B N trans
5369 1 949 832 835 834 # B N B N trans
5370 2 949 832 835 836 # B N B N cis
5371 2 833 838 839 836 # B N B N cis
5372 1 833 838 839 840 # B N B N trans
5373 2 838 833 834 835 # B N B N cis
5374 2 833 834 835 836 # B N B N cis
5375 1 834 833 838 837 # B N B N trans
5376 2 834 833 838 839 # B N B N cis
5377 2 834 835 836 839 # B N B N cis
5378 1 834 835 836 953 # B N B N trans
5379 2 835 836 839 838 # B N B N cis
5380 1 835 836 839 840 # B N B N trans
5381 1 835 836 953 958 # B N B N trans
5382 2 835 836 953 954 # B N B N cis
5383 1 836 839 838 837 # B N B N trans
5384 2 836 839 840 957 # B N B N cis
5385 2 839 836 953 958 # B N B N cis
5386 1 839 836 953 954 # B N B N trans
5387 2 836 953 958 957 # B N B N cis
5388 1 836 953 958 959 # B N B N trans
5389 2 836 953 954 949 # B N B N cis
5390 1 836 953 954 955 # B N B N trans
5391 1 953 836 839 838 # B N B N trans
5392 2 953 836 839 840 # B N B N cis
5393 2 837 838 839 840 # B N B N cis
5394 1 838 839 840 957 # B N B N trans
5395 1 839 840 957 842 # B N B N trans
5396 2 839 840 957 958 # B N B N cis
5397 2 840 957 842 841 # B N B N cis
5398 1 840 957 842 843 # B N B N trans
5399 2 840 957 958 953 # B N B N cis
5400 1 840 957 958 959 # B N B N trans
5401 1 841 846 845 850 # B N B N trans
5402 2 841 846 847 844 # B N B N cis
5403 1 841 846 847 848 # B N B N trans
5404 1 846 841 842 957 # B N B N trans
5405 2 846 841 842 843 # B N B N cis
5406 1 841 842 957 958 # B N B N trans
5407 2 841 842 843 844 # B N B N cis
5408 1 841 842 843 960 # B N B N trans
5409 1 842 841 846 845 # B N B N trans
5410 2 842 841 846 847 # B N B N cis
5411 1 842 957 958 953 # B N B N trans
5412 2 842 957 958 959 # B N B N cis
5413 1 957 842 843 844 # B N B N trans
5414 2 957 842 843 960 # B N B N cis
5415 2 842 843 844 847 # B N B N cis
5416 1 842 843 844 961 # B N B N trans
5417 2 842 843 960 959 # B N B N cis
5418 1 842 843 960 1077 # B N B N trans
5419 2 843 842 957 958 # B N B N cis
5420 2 843 844 847 846 # B N B N cis
5421 1 843 844 847 848 # B N B N trans
5422 2 843 844 961 962 # B N B N cis
5423 1 843 844 961 966 # B N B N trans
5424 1 844 843 960 959 # B N B N trans
5425 2 844 843 960 1077 # B N B N cis
5426 2 843 960 959 958 # B N B N cis
5427 1 843 960 959 956 # B N B N trans
5428 1 843 960 1077 1078 # B N B N trans
5429 2 843 960 1077 962 # B N B N cis
5430 1 960 843 844 847 # B N B N trans
5431 2 960 843 844 961 # B N B N cis
5432 1 844 847 846 845 # B N B N trans
5433 1 844 847 848 851 # B N B N trans
5434 2 844 847 848 965 # B N B N cis
5435 1 847 844 961 962 # B N B N trans
5436 2 847 844 961 966 # B N B N cis
5437 1 844 961 962 963 # B N B N trans
5438 2 844 961 962 1077 # B N B N cis
5439 2 844 961 966 965 # B N B N cis
5440 1 844 961 966 967 # B N B N trans
5441 1 961 844 847 846 # B N B N trans
5442 2 961 844 847 848 # B N B N cis
5443 1 845 850 849 854 # B N B N trans
5444 2 845 850 851 848 # B N B N cis
5445 1 845 850 851 852 # B N B N trans
5446 2 850 845 846 847 # B N B N cis
5447 2 845 846 847 848 # B N B N cis
5448 1 846 845 850 849 # B N B N trans
5449 2 846 845 850 851 # B N B N cis
5450 2 846 847 848 851 # B N B N cis
5451 1 846 847 848 965 # B N B N trans
5452 2 847 848 851 850 # B N B N cis
5453 1 847 848 851 852 # B N B N trans
5454 2 847 848 965 966 # B N B N cis
5455 1 847 848 965 970 # B N B N trans
5456 1 848 851 850 849 # B N B N trans
5457 1 848 851 852 855 # B N B N trans
5458 2 848 851 852 969 # B N B N cis
5459 1 851 848 965 966 # B N B N trans
5460 2 851 848 965 970 # B N B N cis
5461 2 848 965 966 961 # B N B N cis
5462 1 848 965 966 967 # B N B N trans
5463 2 848 965 970 969 # B N B N cis
5464 1 848 965 970 971 # B N B N trans
5465 1 965 848 851 850 # B N B N trans
5466 2 965 848 851 852 # B N B N cis
5467 1 849 854 853 858 # B N B N trans
5468 2 849 854 855 852 # B N B N cis
5469 1 849 854 855 856 # B N B N trans
5470 2 854 849 850 851 # B N B N cis
5471 2 849 850 851 852 # B N B N cis
5472 1 850 849 854 853 # B N B N trans
5473 2 850 849 854 855 # B N B N cis
5474 2 850 851 852 855 # B N B N cis
5475 1 850 851 852 969 # B N B N trans
5476 2 851 852 855 854 # B N B N cis
5477 1 851 852 855 856 # B N B N trans
5478 2 851 852 969 970 # B N B N cis
5479 1 851 852 969 974 # B N B N trans
5480 1 852 855 854 853 # B N B N trans
5481 1 852 855 856 859 # B N B N trans
5482 2 852 855 856 973 # B N B N cis
5483 1 855 852 969 970 # B N B N trans
5484 2 855 852 969 974 # B N B N cis
5485 2 852 969 970 965 # B N B N cis
5486 1 852 969 970 971 # B N B N trans
5487 2 852 969 974 973 # B N B N cis
5488 1 852 969 974 975 # B N B N trans
5489 1 969 852 855 854 # B N B N trans
5490 2 969 852 855 856 # B N B N cis
5491 1 853 858 857 862 # B N B N trans
5492 2 853 858 859 856 # B N B N cis
5493 1 853 858 859 860 # B N B N trans
5494 2 858 853 854 855 # B N B N cis
5495 2 853 854 855 856 # B N B N cis
5496 1 854 853 858 857 # B N B N trans
5497 2 854 853 858 859 # B N B N cis
5498 2 854 855 856 859 # B N B N cis
5499 1 854 855 856 973 # B N B N trans
5500 2 855 856 859 858 # B N B N cis
5501 1 855 856 859 860 # B N B N trans
5502 2 855 856 973 974 # B N B N cis
5503 1 855 856 973 978 # B N B N trans
5504 1 856 859 858 857 # B N B N trans
5505 1 856 859 860 863 # B N B N trans
5506 2 856 859 860 977 # B N B N cis
5507 1 859 856 973 974 # B N B N trans
5508 2 859 856 973 978 # B N B N cis
5509 2 856 973 974 969 # B N B N cis
5510 1 856 973 974 975 # B N B N trans
5511 2 856 973 978 977 # B N B N cis
5512 1 856 973 978 979 # B N B N trans
5513 1 973 856 859 858 # B N B N trans
5514 2 973 856 859 860 # B N B N cis
5515 1 857 862 861 866 # B N B N trans
5516 2 857 862 863 860 # B N B N cis
5517 1 857 862 863 864 # B N B N trans
5518 2 862 857 858 859 # B N B N cis
5519 2 857 858 859 860 # B N B N cis
5520 1 858 857 862 861 # B N B N trans
5521 2 858 857 862 863 # B N B N cis
5522 2 858 859 860 863 # B N B N cis
5523 1 858 859 860 977 # B N B N trans
5524 2 859 860 863 862 # B N B N cis
5525 1 859 860 863 864 # B N B N trans
5526 2 859 860 977 978 # B N B N cis
5527 1 859 860 977 982 # B N B N trans
5528 1 860 863 862 861 # B N B N trans
5529 1 860 863 864 867 # B N B N trans
5530 2 860 863 864 981 # B N B N cis
5531 1 863 860 977 978 # B N B N trans
5532 2 863 860 977 982 # B N B N cis
5533 2 860 977 978 973 # B N B N cis
5534 1 860 977 978 979 # B N B N trans
5535 2 860 977 982 981 # B N B N cis
5536 1 860 977 982 983 # B N B N trans
5537 1 977 860 863 862 # B N B N trans
5538 2 977 860 863 864 # B N B N cis
5539 1 861 866 865 870 # B N B N trans
5540 2 861 866 867 864 # B N B N cis
5541 1 861 866 867 868 # B N B N trans
5542 2 866 861 862 863 # B N B N cis
5543 2 861 862 863 864 # B N B N cis
5544 1 862 861 866 865 # B N B N trans
5545 2 862 861 866 867 # B N B N cis
5546 2 862 863 864 867 # B N B N cis
5547 1 862 863 864 981 # B N B N trans
5548 2 863 864 867 866 # B N B N cis
5549 1 863 864 867 868 # B N B N trans
5550 2 863 864 981 982 # B N B N cis
5551 1 863 864 981 986 # B N B N trans
5552 1 864 867 866 865 # B N B N trans
5553 1 864 867 868 871 # B N B N trans
5554 2 864 867 868 985 # B N B N cis
5555 1 867 864 981 982 # B N B N trans
5556 2 867 864 981 986 # B N B N cis
5557 2 864 981 982 977 # B N B N cis
5558 1 864 981 982 983 # B N B N trans
5559 2 864 981 986 985 # B N B N cis
5560 1 864 981 986 987 # B N B N trans
5561 1 981 864 867 866 # B N B N trans
5562 2 981 864 867 868 # B N B N cis
5563 1 865 870 869 874 # B N B N trans
5564 2 865 870 871 868 # B N B N cis
5565 1 865 870 871 872 # B N B N trans
5566 2 870 865 866 867 # B N B N cis
5567 2 865 866 867 868 # B N B N cis
5568 1 866 865 870 869 # B N B N trans
5569 2 866 865 870 871 # B N B N cis
5570 2 866 867 868 871 # B N B N cis
5571 1 866 867 868 985 # B N B N trans
5572 2 867 868 871 870 # B N B N cis
5573 1 867 868 871 872 # B N B N trans
5574 2 867 868 985 986 # B N B N cis
5575 1 867 868 985 990 # B N B N trans
5576 1 868 871 870 869 # B N B N trans
5577 1 868 871 872 875 # B N B N trans
5578 2 868 871 872 989 # B N B N cis
5579 1 871 868 985 986 # B N B N trans
5580 2 871 868 985 990 # B N B N cis
5581 2 868 985 986 981 # B N B N cis
5582 1 868 985 986 987 # B N B N trans
5583 2 868 985 990 989 # B N B N cis
5584 1 868 985 990 991 # B N B N trans
5585 1 985 868 871 870 # B N B N trans
5586 2 985 868 871 872 # B N B N cis
5587 1 869 874 873 878 # B N B N trans
5588 2 869 874 875 872 # B N B N cis
5589 1 869 874 875 876 # B N B N trans
5590 2 874 869 870 871 # B N B N cis
5591 2 869 870 871 872 # B N B N cis
5592 1 870 869 874 873 # B N B N trans
5593 2 870 869 874 875 # B N B N cis
5594 2 870 871 872 875 # B N B N cis
5595 1 870 871 872 989 # B N B N trans
5596 2 871 872 875 874 # B N B N cis
5597 1 871 872 875 876 # B N B N trans
5598 2 871 872 989 990 # B N B N cis
5599 1 871 872 989 994 # B N B N trans
5600 1 872 875 874 873 # B N B N trans
5601 1 872 875 876 879 # B N B N trans
5602 2 872 875 876 993 # B N B N cis
5603 1 875 872 989 990 # B N B N trans
5604 2 875 872 989 994 # B N B N cis
5605 2 872 989 990 985 # B N B N cis
5606 1 872 989 990 991 # B N B N trans
5607 2 872 989 994 993 # B N B N cis
5608 1 872 989 994 995 # B N B N trans
5609 1 989 872 875 874 # B N B N trans
5610 2 989 872 875 876 # B N B N cis
5611 1 873 878 877 882 # B N B N trans
5612 2 873 878 879 876 # B N B N cis
5613 1 873 878 879 880 # B N B N trans
5614 2 878 873 874 875 # B N B N cis
5615 2 873 874 875 876 # B N B N cis
5616 1 874 873 878 877 # B N B N trans
5617 2 874 873 878 879 # B N B N cis
5618 2 874 875 876 879 # B N B N cis
5619 1 874 875 876 993 # B N B N trans
5620 2 875 876 879 878 # B N B N cis
5621 1 875 876 879 880 # B N B N trans
5622 2 875 876 993 994 # B N B N cis
5623 1 875 876 993 998 # B N B N trans
5624 1 876 879 878 877 # B N B N trans
5625 1 876 879 880 883 # B N B N trans
5626 2 876 879 880 997 # B N B N cis
5627 1 879 876 993 994 # B N B N trans
5628 2 879 876 993 998 # B N B N cis
5629 2 876 993 994 989 # B N B N cis
5630 1 876 993 994 995 # B N B N trans
5631 2 876 993 998 997 # B N B N cis
5632 1 876 993 998 999 # B N B N trans
5633 1 993 876 879 878 # B N B N trans
5634 2 993 876 879 880 # B N B N cis
5635 1 877 882 881 886 # B N B N trans
5636 2 877 882 883 880 # B N B N cis
5637 1 877 882 883 884 # B N B N trans
5638 2 882 877 878 879 # B N B N cis
5639 2 877 878 879 880 # B N B N cis
5640 1 878 877 882 881 # B N B N trans
5641 2 878 877 882 883 # B N B N cis
5642 2 878 879 880 883 # B N B N cis
5643 1 878 879 880 997 # B N B N trans
5644 2 879 880 883 882 # B N B N cis
5645 1 879 880 883 884 # B N B N trans
5646 2 879 880 997 998 # B N B N cis
5647 1 879 880 997 1002 # B N B N trans
5648 1 880 883 882 881 # B N B N trans
5649 1 880 883 884 887 # B N B N trans
5650 2 880 883 884 1001 # B N B N cis
5651 1 883 880 997 998 # B N B N trans
5652 2 883 880 997 1002 # B N B N cis
5653 2 880 997 998 993 # B N B N cis
5654 1 880 997 998 999 # B N B N trans
5655 2 880 997 1002 1001 # B N B N cis
5656 1 880 997 1002 1003 # B N B N trans
5657 1 997 880 883 882 # B N B N trans
5658 2 997 880 883 884 # B N B N cis
5659 1 881 886 885 890 # B N B N trans
5660 2 881 886 887 884 # B N B N cis
5661 1 881 886 887 888 # B N B N trans
5662 2 886 881 882 883 # B N B N cis
5663 2 881 882 883 884 # B N B N cis
5664 1 882 881 886 885 # B N B N trans
5665 2 882 881 886 887 # B N B N cis
5666 2 882 883 884 887 # B N B N cis
5667 1 882 883 884 1001 # B N B N trans
5668 2 883 884 887 886 # B N B N cis
5669 1 883 884 887 888 # B N B N trans
5670 2 883 884 1001 1002 # B N B N cis
5671 1 883 884 1001 1006 # B N B N trans
5672 1 884 887 886 885 # B N B N trans
5673 1 884 887 888 891 # B N B N trans
5674 2 884 887 888 1005 # B N B N cis
5675 1 887 884 1001 1002 # B N B N trans
5676 2 887 884 1001 1006 # B N B N cis
5677 2 884 1001 1002 997 # B N B N cis
5678 1 884 1001 1002 1003 # B N B N trans
5679 2 884 1001 1006 1005 # B N B N cis
5680 1 884 1001 1006 1007 # B N B N trans
5681 1 1001 884 887 886 # B N B N trans
5682 2 1001 884 887 888 # B N B N cis
5683 1 885 890 889 894 # B N B N trans
5684 2 885 890 891 888 # B N B N cis
5685 1 885 890 891 892 # B N B N trans
5686 2 890 885 886 887 # B N B N cis
5687 2 885 886 887 888 # B N B N cis
5688 1 886 885 890 889 # B N B N trans
5689 2 886 885 890 891 # B N B N cis
5690 2 886 887 888 891 # B N B N cis
5691 1 886 887 888 1005 # B N B N trans
5692 2 887 888 891 890 # B N B N cis
5693 1 887 888 891 892 # B N B N trans
5694 2 887 888 1005 1006 # B N B N cis
5695 1 887 888 1005 1010 # B N B N trans
5696 1 888 891 890 889 # B N B N trans
5697 1 888 891 892 895 # B N B N trans
5698 2 888 891 892 1009 # B N B N cis
5699 1 891 888 1005 1006 # B N B N trans
5700 2 891 888 1005 1010 # B N B N cis
5701 2 888 1005 1006 1001 # B N B N cis
5702 1 888 1005 1006 1007 # B N B N trans
5703 2 888 1005 1010 1009 # B N B N cis
5704 1 888 1005 1010 1011 # B N B N trans
5705 1 1005 888 891 890 # B N B N trans
5706 2 1005 888 891 892 # B N B N cis
5707 1 889 894 893 898 # B N B N trans
5708 2 889 894 895 892 # B N B N cis
5709 1 889 894 895 896 # B N B N trans
5710 2 894 889 890 891 # B N B N cis
5711 2 889 890 891 892 # B N B N cis
5712 1 890 889 894 893 # B N B N trans
5713 2 890 889 894 895 # B N B N cis
5714 2 890 891 892 895 # B N B N cis
5715 1 890 891 892 1009 # B N B N trans
5716 2 891 892 895 894 # B N B N cis
5717 1 891 892 895 896 # B N B N trans
5718 2 891 892 1009 1010 # B N B N cis
5719 1 891 892 1009 1014 # B N B N trans
5720 1 892 895 894 893 # B N B N trans
5721 1 892 895 896 899 # B N B N trans
5722 2 892 895 896 1013 # B N B N cis
5723 1 895 892 1009 1010 # B N B N trans
5724 2 895 892 1009 1014 # B N B N cis
5725 2 892 1009 1010 1005 # B N B N cis
5726 1 892 1009 1010 1011 # B N B N trans
5727 2 892 1009 1014 1013 # B N B N cis
5728 1 892 1009 1014 1015 # B N B N trans
5729 1 1009 892 895 894 # B N B N trans
5730 2 1009 892 895 896 # B N B N cis
5731 1 893 898 897 902 # B N B N trans
5732 2 893 898 899 896 # B N B N cis
5733 1 893 898 899 900 # B N B N trans
5734 2 898 893 894 895 # B N B N cis
5735 2 893 894 895 896 # B N B N cis
5736 1 894 893 898 897 # B N B N trans
5737 2 894 893 898 899 # B N B N cis
5738 2 894 895 896 899 # B N B N cis
5739 1 894 895 896 1013 # B N B N trans
5740 2 895 896 899 898 # B N B N cis
5741 1 895 896 899 900 # B N B N trans
5742 2 895 896 1013 1014 # B N B N cis
5743 1 895 896 1013 1018 # B N B N trans
5744 1 896 899 898 897 # B N B N trans
5745 1 896 899 900 903 # B N B N trans
5746 2 896 899 900 1017 # B N B N cis
5747 1 899 896 1013 1014 # B N B N trans
5748 2 899 896 1013 1018 # B N B N cis
5749 2 896 1013 1014 1009 # B N B N cis
5750 1 896 1013 1014 1015 # B N B N trans
5751 2 896 1013 1018 1017 # B N B N cis
5752 1 896 1013 1018 1019 # B N B N trans
5753 1 1013 896 899 898 # B N B N trans
5754 2 1013 896 899 900 # B N B N cis
5755 1 897 902 901 906 # B N B N trans
5756 2 897 902 903 900 # B N B N cis
5757 1 897 902 903 904 # B N B N trans
5758 2 902 897 898 899 # B N B N cis
5759 2 897 898 899 900 # B N B N cis
5760 1 898 897 902 901 # B N B N trans
5761 2 898 897 902 903 # B N B N cis
5762 2 898 899 900 903 # B N B N cis
5763 1 898 899 900 1017 # B N B N trans
5764 2 899 900 903 902 # B N B N cis
5765 1 899 900 903 904 # B N B N trans
5766 2 899 900 1017 1018 # B N B N cis
5767 1 899 900 1017 1022 # B N B N trans
5768 1 900 903 902 901 # B N B N trans
5769 1 900 903 904 907 # B N B N trans
5770 2 900 903 904 1021 # B N B N cis
5771 1 903 900 1017 1018 # B N B N trans
5772 2 903 900 1017 1022 # B N B N cis
5773 2 900 1017 1018 1013 # B N B N cis
5774 1 900 1017 1018 1019 # B N B N trans
5775 2 900 1017 1022 1021 # B N B N cis
5776 1 900 1017 1022 1023 # B N B N trans
5777 1 1017 900 903 902 # B N B N trans
5778 2 1017 900 903 904 # B N B N cis
5779 1 901 906 905 910 # B N B N trans
5780 2 901 906 907 904 # B N B N cis
5781 1 901 906 907 908 # B N B N trans
5782 2 906 901 902 903 # B N B N cis
5783 2 901 902 903 904 # B N B N cis
5784 1 902 901 906 905 # B N B N trans
5785 2 902 901 906 907 # B N B N cis
5786 2 902 903 904 907 # B N B N cis
5787 1 902 903 904 1021 # B N B N trans
5788 2 903 904 907 906 # B N B N cis
5789 1 903 904 907 908 # B N B N trans
5790 2 903 904 1021 1022 # B N B N cis
5791 1 903 904 1021 1026 # B N B N trans
5792 1 904 907 906 905 # B N B N trans
5793 1 904 907 908 911 # B N B N trans
5794 2 904 907 908 1025 # B N B N cis
5795 1 907 904 1021 1022 # B N B N trans
5796 2 907 904 1021 1026 # B N B N cis
5797 2 904 1021 1022 1017 # B N B N cis
5798 1 904 1021 1022 1023 # B N B N trans
5799 2 904 1021 1026 1025 # B N B N cis
5800 1 904 1021 1026 1027 # B N B N trans
5801 1 1021 904 907 906 # B N B N trans
5802 2 1021 904 907 908 # B N B N cis
5803 1 905 910 909 914 # B N B N trans
5804 2 905 910 911 908 # B N B N cis
5805 1 905 910 911 912 # B N B N trans
5806 2 910 905 906 907 # B N B N cis
5807 2 905 906 907 908 # B N B N cis
5808 1 906 905 910 909 # B N B N trans
5809 2 906 905 910 911 # B N B N cis
5810 2 906 907 908 911 # B N B N cis
5811 1 906 907 908 1025 # B N B N trans
5812 2 907 908 911 910 # B N B N cis
5813 1 907 908 911 912 # B N B N trans
5814 2 907 908 1025 1026 # B N B N cis
5815 1 907 908 1025 1030 # B N B N trans
5816 1 908 911 910 909 # B N B N trans
5817 1 908 911 912 915 # B N B N trans
5818 2 908 911 912 1029 # B N B N cis
5819 1 911 908 1025 1026 # B N B N trans
5820 2 911 908 1025 1030 # B N B N cis
5821 2 908 1025 1026 1021 # B N B N cis
5822 1 908 1025 1026 1027 # B N B N trans
5823 2 908 1025 1030 1029 # B N B N cis
5824 1 908 1025 1030 1031 # B N B N trans
5825 1 1025 908 911 910 # B N B N trans
5826 2 1025 908 911 912 # B N B N cis
5827 1 909 914 913 918 # B N B N trans
5828 2 909 914 915 912 # B N B N cis
5829 1 909 914 915 916 # B N B N trans
5830 2 914 909 910 911 # B N B N cis
5831 2 909 910 911 912 # B N B N cis
5832 1 910 909 914 913 # B N B N trans
5833 2 910 909 914 915 # B N B N cis
5834 2 910 911 912 915 # B N B N cis
5835 1 910 911 912 1029 # B N B N trans
5836 2 911 912 915 914 # B N B N cis
5837 1 911 912 915 916 # B N B N trans
5838 2 911 912 1029 1030 # B N B N cis
5839 1 911 912 1029 1034 # B N B N trans
5840 1 912 915 914 913 # B N B N trans
5841 1 912 915 916 919 # B N B N trans
5842 2 912 915 916 1033 # B N B N cis
5843 1 915 912 1029 1030 # B N B N trans
5844 2 915 912 1029 1034 # B N B N cis
5845 2 912 1029 1030 1025 # B N B N cis
5846 1 912 1029 1030 1031 # B N B N trans
5847 2 912 1029 1034 1033 # B N B N cis
5848 1 912 1029 1034 1035 # B N B N trans
5849 1 1029 912 915 914 # B N B N trans
5850 2 1029 912 915 916 # B N B N cis
5851 1 913 918 917 922 # B N B N trans
5852 2 913 918 919 916 # B N B N cis
5853 1 913 918 919 920 # B N B N trans
5854 2 918 913 914 915 # B N B N cis
5855 2 913 914 915 916 # B N B N cis
5856 1 914 913 918 917 # B N B N trans
5857 2 914 913 918 919 # B N B N cis
5858 2 914 915 916 919 # B N B N cis
5859 1 914 915 916 1033 # B N B N trans
5860 2 915 916 919 918 # B N B N cis
5861 1 915 916 919 920 # B N B N trans
5862 2 915 916 1033 1034 # B N B N cis
5863 1 915 916 1033 1038 # B N B N trans
5864 1 916 919 918 917 # B N B N trans
5865 1 916 919 920 923 # B N B N trans
5866 2 916 919 920 1037 # B N B N cis
5867 1 919 916 1033 1034 # B N B N trans
5868 2 919 916 1033 1038 # B N B N cis
5869 2 916 1033 1034 1029 # B N B N cis
5870 1 916 1033 1034 1035 # B N B N trans
5871 2 916 1033 1038 1037 # B N B N cis
5872 1 916 1033 1038 1039 # B N B N trans
5873 1 1033 916 919 918 # B N B N trans
5874 2 1033 916 919 920 # B N B N cis
5875 1 917 922 921 926 # B N B N trans
5876 2 917 922 923 920 # B N B N cis
5877 1 917 922 923 924 # B N B N trans
5878 2 922 917 918 919 # B N B N cis
5879 2 917 918 919 920 # B N B N cis
5880 1 918 917 922 921 # B N B N trans
5881 2 918 917 922 923 # B N B N cis
5882 2 918 919 920 923 # B N B N cis
5883 1 918 919 920 1037 # B N B N trans
5884 2 919 920 923 922 # B N B N cis
5885 1 919 920 923 924 # B N B N trans
5886 2 919 920 1037 1038 # B N B N cis
5887 1 919 920 1037 1042 # B N B N trans
5888 1 920 923 922 921 # B N B N trans
5889 1 920 923 924 927 # B N B N trans
5890 2 920 923 924 1041 # B N B N cis
5891 1 923 920 1037 1038 # B N B N trans
5892 2 923 920 1037 1042 # B N B N cis
5893 2 920 1037 1038 1033 # B N B N cis
5894 1 920 1037 1038 1039 # B N B N trans
5895 2 920 1037 1042 1041 # B N B N cis
5896 1 920 1037 1042 1043 # B N B N trans
5897 1 1037 920 923 922 # B N B N trans
5898 2 1037 920 923 924 # B N B N cis
5899 1 921 926 925 930 # B N B N trans
5900 2 921 926 927 924 # B N B N cis
5901 1 921 926 927 928 # B N B N trans
5902 2 926 921 922 923 # B N B N cis
5903 2 921 922 923 924 # B N B N cis
5904 1 922 921 926 925 # B N B N trans
5905 2 922 921 926 927 # B N B N cis
5906 2 922 923 924 927 # B N B N cis
5907 1 922 923 924 1041 # B N B N trans
5908 2 923 924 927 926 # B N B N cis
5909 1 923 924 927 928 # B N B N trans
5910 2 923 924 1041 1042 # B N B N cis
5911 1 923 924 1041 1046 # B N B N trans
5912 1 924 927 926 925 # B N B N trans
5913 1 924 927 928 931 # B N B N trans
5914 2 924 927 928 1045 # B N B N cis
5915 1 927 924 1041 1042 # B N B N trans
5916 2 927 924 1041 1046 # B N B N cis
5917 2 924 1041 1042 1037 # B N B N cis
5918 1 924 1041 1042 1043 # B N B N trans
5919 2 924 1041 1046 1045 # B N B N cis
5920 1 924 1041 1046 1047 # B N B N trans
5921 1 1041 924 927 926 # B N B N trans
5922 2 1041 924 927 928 # B N B N cis
5923 1 925 930 929 934 # B N B N trans
5924 2 925 930 931 928 # B N B N cis
5925 1 925 930 931 932 # B N B N trans
5926 2 930 925 926 927 # B N B N cis
5927 2 925 926 927 928 # B N B N cis
5928 1 926 925 930 929 # B N B N trans
5929 2 926 925 930 931 # B N B N cis
5930 2 926 927 928 931 # B N B N cis
5931 1 926 927 928 1045 # B N B N trans
5932 2 927 928 931 930 # B N B N cis
5933 1 927 928 931 932 # B N B N trans
5934 2 927 928 1045 1046 # B N B N cis
5935 1 927 928 1045 1050 # B N B N trans
5936 1 928 931 930 929 # B N B N trans
5937 1 928 931 932 935 # B N B N trans
5938 2 928 931 932 1049 # B N B N cis
5939 1 931 928 1045 1046 # B N B N trans
5940 2 931 928 1045 1050 # B N B N cis
5941 2 928 1045 1046 1041 # B N B N cis
5942 1 928 1045 1046 1047 # B N B N trans
5943 2 928 1045 1050 1049 # B N B N cis
5944 1 928 1045 1050 1051 # B N B N trans
5945 1 1045 928 931 930 # B N B N trans
5946 2 1045 928 931 932 # B N B N cis
5947 1 929 934 933 938 # B N B N trans
5948 2 929 934 935 932 # B N B N cis
5949 1 929 934 935 936 # B N B N trans
5950 2 934 929 930 931 # B N B N cis
5951 2 929 930 931 932 # B N B N cis
5952 1 930 929 934 933 # B N B N trans
5953 2 930 929 934 935 # B N B N cis
5954 2 930 931 932 935 # B N B N cis
5955 1 930 931 932 1049 # B N B N trans
5956 2 931 932 935 934 # B N B N cis
5957 1 931 932 935 936 # B N B N trans
5958 2 931 932 1049 1050 # B N B N cis
5959 1 931 932 1049 1054 # B N B N trans
5960 1 932 935 934 933 # B N B N trans
5961 1 932 935 936 939 # B N B N trans
5962 2 932 935 936 1053 # B N B N cis
5963 1 935 932 1049 1050 # B N B N trans
5964 2 935 932 1049 1054 # B N B N cis
5965 2 932 1049 1050 1045 # B N B N cis
5966 1 932 1049 1050 1051 # B N B N trans
5967 2 932 1049 1054 1053 # B N B N cis
5968 1 932 1049 1054 1055 # B N B N trans
5969 1 1049 932 935 934 # B N B N trans
5970 2 1049 932 935 936 # B N B N cis
5971 1 933 938 937 942 # B N B N trans
5972 2 933 938 939 936 # B N B N cis
5973 1 933 938 939 940 # B N B N trans
5974 2 938 933 934 935 # B N B N cis
5975 2 933 934 935 936 # B N B N cis
5976 1 934 933 938 937 # B N B N trans
5977 2 934 933 938 939 # B N B N cis
5978 2 934 935 936 939 # B N B N cis
5979 1 934 935 936 1053 # B N B N trans
5980 2 935 936 939 938 # B N B N cis
5981 1 935 936 939 940 # B N B N trans
5982 2 935 936 1053 1054 # B N B N cis
5983 1 935 936 1053 1058 # B N B N trans
5984 1 936 939 938 937 # B N B N trans
5985 1 936 939 940 943 # B N B N trans
5986 2 936 939 940 1057 # B N B N cis
5987 1 939 936 1053 1054 # B N B N trans
5988 2 939 936 1053 1058 # B N B N cis
5989 2 936 1053 1054 1049 # B N B N cis
5990 1 936 1053 1054 1055 # B N B N trans
5991 2 936 1053 1058 1057 # B N B N cis
5992 1 936 1053 1058 1059 # B N B N trans
5993 1 1053 936 939 938 # B N B N trans
5994 2 1053 936 939 940 # B N B N cis
5995 1 937 942 941 946 # B N B N trans
5996 2 937 942 943 940 # B N B N cis
5997 1 937 942 943 944 # B N B N trans
5998 2 942 937 938 939 # B N B N cis
5999 2 937 938 939 940 # B N B N cis
6000 1 938 937 942 941 # B N B N trans
6001 2 938 937 942 943 # B N B N cis
6002 2 938 939 940 943 # B N B N cis
6003 1 938 939 940 1057 # B N B N trans
6004 2 939 940 943 942 # B N B N cis
6005 1 939 940 943 944 # B N B N trans
6006 2 939 940 1057 1058 # B N B N cis
6007 1 939 940 1057 1062 # B N B N trans
6008 1 940 943 942 941 # B N B N trans
6009 1 940 943 944 947 # B N B N trans
6010 2 940 943 944 1061 # B N B N cis
6011 1 943 940 1057 1058 # B N B N trans
6012 2 943 940 1057 1062 # B N B N cis
6013 2 940 1057 1058 1053 # B N B N cis
6014 1 940 1057 1058 1059 # B N B N trans
6015 2 940 1057 1062 1061 # B N B N cis
6016 1 940 1057 1062 1063 # B N B N trans
6017 1 1057 940 943 942 # B N B N trans
6018 2 1057 940 943 944 # B N B N cis
6019 1 941 946 945 950 # B N B N trans
6020 2 941 946 947 944 # B N B N cis
6021 1 941 946 947 948 # B N B N trans
6022 2 946 941 942 943 # B N B N cis
6023 2 941 942 943 944 # B N B N cis
6024 1 942 941 946 945 # B N B N trans
6025 2 942 941 946 947 # B N B N cis
6026 2 942 943 944 947 # B N B N cis
6027 1 942 943 944 1061 # B N B N trans
6028 2 943 944 947 946 # B N B N cis
6029 1 943 944 947 948 # B N B N trans
6030 2 943 944 1061 1062 # B N B N cis
6031 1 943 944 1061 1066 # B N B N trans
6032 1 944 947 946 945 # B N B N trans
6033 1 944 947 948 951 # B N B N trans
6034 2 944 947 948 1065 # B N B N cis
6035 1 947 944 1061 1062 # B N B N trans
6036 2 947 944 1061 1066 # B N B N cis
6037 2 944 1061 1062 1057 # B N B N cis
6038 1 944 1061 1062 1063 # B N B N trans
6039 2 944 1061 1066 1065 # B N B N cis
6040 1 944 1061 1066 1067 # B N B N trans
6041 1 1061 944 947 946 # B N B N trans
6042 2 1061 944 947 948 # B N B N cis
6043 1 945 950 949 954 # B N B N trans
6044 2 945 950 951 948 # B N B N cis
6045 1 945 950 951 952 # B N B N trans
6046 2 950 945 946 947 # B N B N cis
6047 2 945 946 947 948 # B N B N cis
6048 1 946 945 950 949 # B N B N trans
6049 2 946 945 950 951 # B N B N cis
6050 2 946 947 948 951 # B N B N cis
6051 1 946 947 948 1065 # B N B N trans
6052 2 947 948 951 950 # B N B N cis
6053 1 947 948 951 952 # B N B N trans
6054 2 947 948 1065 1066 # B N B N cis
6055 1 947 948 1065 1070 # B N B N trans
6056 1 948 951 950 949 # B N B N trans
6057 1 948 951 952 955 # B N B N trans
6058 2 948 951 952 1069 # B N B N cis
6059 1 951 948 1065 1066 # B N B N trans
6060 2 951 948 1065 1070 # B N B N cis
6061 2 948 1065 1066 1061 # B N B N cis
6062 1 948 1065 1066 1067 # B N B N trans
6063 2 948 1065 1070 1069 # B N B N cis
6064 1 948 1065 1070 1071 # B N B N trans
6065 1 1065 948 951 950 # B N B N trans
6066 2 1065 948 951 952 # B N B N cis
6067 1 949 954 953 958 # B N B N trans
6068 2 949 954 955 952 # B N B N cis
6069 1 949 954 955 956 # B N B N trans
6070 2 954 949 950 951 # B N B N cis
6071 2 949 950 951 952 # B N B N cis
6072 1 950 949 954 953 # B N B N trans
6073 2 950 949 954 955 # B N B N cis
6074 2 950 951 952 955 # B N B N cis
6075 1 950 951 952 1069 # B N B N trans
6076 2 951 952 955 954 # B N B N cis
6077 1 951 952 955 956 # B N B N trans
6078 2 951 952 1069 1070 # B N B N cis
6079 1 951 952 1069 1074 # B N B N trans
6080 1 952 955 954 953 # B N B N trans
6081 1 952 955 956 959 # B N B N trans
6082 2 952 955 956 1073 # B N B N cis
6083 1 955 952 1069 1070 # B N B N trans
6084 2 955 952 1069 1074 # B N B N cis
6085 2 952 1069 1070 1065 # B N B N cis
6086 1 952 1069 1070 1071 # B N B N trans
6087 2 952 1069 1074 1073 # B N B N cis
6088 1 952 1069 1074 1075 # B N B N trans
6089 1 1069 952 955 954 # B N B N trans
6090 2 1069 952 955 956 # B N B N cis
6091 2 953 958 959 956 # B N B N cis
6092 1 953 958 959 960 # B N B N trans
6093 2 958 953 954 955 # B N B N cis
6094 2 953 954 955 956 # B N B N cis
6095 1 954 953 958 957 # B N B N trans
6096 2 954 953 958 959 # B N B N cis
6097 2 954 955 956 959 # B N B N cis
6098 1 954 955 956 1073 # B N B N trans
6099 2 955 956 959 958 # B N B N cis
6100 1 955 956 959 960 # B N B N trans
6101 2 955 956 1073 1074 # B N B N cis
6102 1 955 956 1073 1078 # B N B N trans
6103 1 956 959 958 957 # B N B N trans
6104 2 956 959 960 1077 # B N B N cis
6105 1 959 956 1073 1074 # B N B N trans
6106 2 959 956 1073 1078 # B N B N cis
6107 2 956 1073 1074 1069 # B N B N cis
6108 1 956 1073 1074 1075 # B N B N trans
6109 2 956 1073 1078 1077 # B N B N cis
6110 1 956 1073 1078 1079 # B N B N trans
6111 1 1073 956 959 958 # B N B N trans
6112 2 1073 956 959 960 # B N B N cis
6113 2 957 958 959 960 # B N B N cis
6114 1 958 959 960 1077 # B N B N trans
6115 2 959 960 1077 1078 # B N B N cis
6116 1 959 960 1077 962 # B N B N trans
6117 2 960 1077 1078 1073 # B N B N cis
6118 1 960 1077 1078 1079 # B N B N trans
6119 2 960 1077 962 961 # B N B N cis
6120 1 960 1077 962 963 # B N B N trans
6121 2 961 962 963 964 # B N B N cis
6122 1 961 962 963 1080 # B N B N trans
6123 1 961 962 1077 1078 # B N B N trans
6124 1 962 961 966 965 # B N B N trans
6125 2 962 961 966 967 # B N B N cis
6126 1 961 966 965 970 # B N B N trans
6127 1 961 966 967 968 # B N B N trans
6128 2 961 966 967 964 # B N B N cis
6129 2 966 961 962 963 # B N B N cis
6130 1 966 961 962 1077 # B N B N trans
6131 2 962 963 964 967 # B N B N cis
6132 1 962 963 964 1081 # B N B N trans
6133 2 962 963 1080 1079 # B N B N cis
6134 1 962 963 1080 1197 # B N B N trans
6135 2 963 962 1077 1078 # B N B N cis
6136 1 962 1077 1078 1073 # B N B N trans
6137 2 962 1077 1078 1079 # B N B N cis
6138 1 1077 962 963 964 # B N B N trans
6139 2 1077 962 963 1080 # B N B N cis
6140 2 963 964 967 966 # B N B N cis
6141 1 963 964 967 968 # B N B N trans
6142 2 963 964 1081 1082 # B N B N cis
6143 1 963 964 1081 1086 # B N B N trans
6144 1 964 963 1080 1079 # B N B N trans
6145 2 964 963 1080 1197 # B N B N cis
6146 2 963 1080 1079 1078 # B N B N cis
6147 1 963 1080 1079 1076 # B N B N trans
6148 1 963 1080 1197 1198 # B N B N trans
6149 2 963 1080 1197 1082 # B N B N cis
6150 1 1080 963 964 967 # B N B N trans
6151 2 1080 963 964 1081 # B N B N cis
6152 1 964 967 966 965 # B N B N trans
6153 1 964 967 968 971 # B N B N trans
6154 2 964 967 968 1085 # B N B N cis
6155 1 967 964 1081 1082 # B N B N trans
6156 2 967 964 1081 1086 # B N B N cis
6157 1 964 1081 1082 1083 # B N B N trans
6158 2 964 1081 1082 1197 # B N B N cis
6159 2 964 1081 1086 1085 # B N B N cis
6160 1 964 1081 1086 1087 # B N B N trans
6161 1 1081 964 967 966 # B N B N trans
6162 2 1081 964 967 968 # B N B N cis
6163 2 965 966 967 968 # B N B N cis
6164 1 966 965 970 969 # B N B N trans
6165 2 966 965 970 971 # B N B N cis
6166 1 965 970 969 974 # B N B N trans
6167 1 965 970 971 972 # B N B N trans
6168 2 965 970 971 968 # B N B N cis
6169 2 970 965 966 967 # B N B N cis
6170 2 966 967 968 971 # B N B N cis
6171 1 966 967 968 1085 # B N B N trans
6172 2 967 968 971 970 # B N B N cis
6173 1 967 968 971 972 # B N B N trans
6174 2 967 968 1085 1086 # B N B N cis
6175 1 967 968 1085 1090 # B N B N trans
6176 1 968 971 970 969 # B N B N trans
6177 1 968 971 972 975 # B N B N trans
6178 2 968 971 972 1089 # B N B N cis
6179 1 971 968 1085 1086 # B N B N trans
6180 2 971 968 1085 1090 # B N B N cis
6181 2 968 1085 1086 1081 # B N B N cis
6182 1 968 1085 1086 1087 # B N B N trans
6183 2 968 1085 1090 1089 # B N B N cis
6184 1 968 1085 1090 1091 # B N B N trans
6185 1 1085 968 971 970 # B N B N trans
6186 2 1085 968 971 972 # B N B N cis
6187 2 969 970 971 972 # B N B N cis
6188 1 970 969 974 973 # B N B N trans
6189 2 970 969 974 975 # B N B N cis
6190 1 969 974 973 978 # B N B N trans
6191 1 969 974 975 976 # B N B N trans
6192 2 969 974 975 972 # B N B N cis
6193 2 974 969 970 971 # B N B N cis
6194 2 970 971 972 975 # B N B N cis
6195 1 970 971 972 1089 # B N B N trans
6196 2 971 972 975 974 # B N B N cis
6197 1 971 972 975 976 # B N B N trans
6198 2 971 972 1089 1090 # B N B N cis
6199 1 971 972 1089 1094 # B N B N trans
6200 1 972 975 974 973 # B N B N trans
6201 1 972 975 976 979 # B N B N trans
6202 2 972 975 976 1093 # B N B N cis
6203 1 975 972 1089 1090 # B N B N trans
6204 2 975 972 1089 1094 # B N B N cis
6205 2 972 1089 1090 1085 # B N B N cis
6206 1 972 1089 1090 1091 # B N B N trans
6207 2 972 1089 1094 1093 # B N B N cis
6208 1 972 1089 1094 1095 # B N B N trans
6209 1 1089 972 975 974 # B N B N trans
6210 2 1089 972 975 976 # B N B N cis
6211 2 973 974 975 976 # B N B N cis
6212 1 974 973 978 977 # B N B N trans
6213 2 974 973 978 979 # B N B N cis
6214 1 973 978 977 982 # B N B N trans
6215 1 973 978 979 980 # B N B N trans
6216 2 973 978 979 976 # B N B N cis
6217 2 978 973 974 975 # B N B N cis
6218 2 974 975 976 979 # B N B N cis
6219 1 974 975 976 1093 # B N B N trans
6220 2 975 976 979 978 # B N B N cis
6221 1 975 976 979 980 # B N B N trans
6222 2 975 976 1093 1094 # B N B N cis
6223 1 975 976 1093 1098 # B N B N trans
6224 1 976 979 978 977 # B N B N trans
6225 1 976 979 980 983 # B N B N trans
6226 2 976 979 980 1097 # B N B N cis
6227 1 979 976 1093 1094 # B N B N trans
6228 2 979 976 1093 1098 # B N B N cis
6229 2 976 1093 1094 1089 # B N B N cis
6230 1 976 1093 1094 1095 # B N B N trans
6231 2 976 1093 1098 1097 # B N B N cis
6232 1 976 1093 1098 1099 # B N B N trans
6233 1 1093 976 979 978 # B N B N trans
6234 2 1093 976 979 980 # B N B N cis
6235 2 977 978 979 980 # B N B N cis
6236 1 978 977 982 981 # B N B N trans
6237 2 978 977 982 983 # B N B N cis
6238 1 977 982 981 986 # B N B N trans
6239 1 977 982 983 984 # B N B N trans
6240 2 977 982 983 980 # B N B N cis
6241 2 982 977 978 979 # B N B N cis
6242 2 978 979 980 983 # B N B N cis
6243 1 978 979 980 1097 # B N B N trans
6244 2 979 980 983 982 # B N B N cis
6245 1 979 980 983 984 # B N B N trans
6246 2 979 980 1097 1098 # B N B N cis
6247 1 979 980 1097 1102 # B N B N trans
6248 1 980 983 982 981 # B N B N trans
6249 1 980 983 984 987 # B N B N trans
6250 2 980 983 984 1101 # B N B N cis
6251 1 983 980 1097 1098 # B N B N trans
6252 2 983 980 1097 1102 # B N B N cis
6253 2 980 1097 1098 1093 # B N B N cis
6254 1 980 1097 1098 1099 # B N B N trans
6255 2 980 1097 1102 1101 # B N B N cis
6256 1 980 1097 1102 1103 # B N B N trans
6257 1 1097 980 983 982 # B N B N trans
6258 2 1097 980 983 984 # B N B N cis
6259 2 981 982 983 984 # B N B N cis
6260 1 982 981 986 985 # B N B N trans
6261 2 982 981 986 987 # B N B N cis
6262 1 981 986 985 990 # B N B N trans
6263 1 981 986 987 988 # B N B N trans
6264 2 981 986 987 984 # B N B N cis
6265 2 986 981 982 983 # B N B N cis
6266 2 982 983 984 987 # B N B N cis
6267 1 982 983 984 1101 # B N B N trans
6268 2 983 984 987 986 # B N B N cis
6269 1 983 984 987 988 # B N B N trans
6270 2 983 984 1101 1102 # B N B N cis
6271 1 983 984 1101 1106 # B N B N trans
6272 1 984 987 986 985 # B N B N trans
6273 1 984 987 988 991 # B N B N trans
6274 2 984 987 988 1105 # B N B N cis
6275 1 987 984 1101 1102 # B N B N trans
6276 2 987 984 1101 1106 # B N B N cis
6277 2 984 1101 1102 1097 # B N B N cis
6278 1 984 1101 1102 1103 # B N B N trans
6279 2 984 1101 1106 1105 # B N B N cis
6280 1 984 1101 1106 1107 # B N B N trans
6281 1 1101 984 987 986 # B N B N trans
6282 2 1101 984 987 988 # B N B N cis
6283 2 985 986 987 988 # B N B N cis
6284 1 986 985 990 989 # B N B N trans
6285 2 986 985 990 991 # B N B N cis
6286 1 985 990 989 994 # B N B N trans
6287 1 985 990 991 992 # B N B N trans
6288 2 985 990 991 988 # B N B N cis
6289 2 990 985 986 987 # B N B N cis
6290 2 986 987 988 991 # B N B N cis
6291 1 986 987 988 1105 # B N B N trans
6292 2 987 988 991 990 # B N B N cis
6293 1 987 988 991 992 # B N B N trans
6294 2 987 988 1105 1106 # B N B N cis
6295 1 987 988 1105 1110 # B N B N trans
6296 1 988 991 990 989 # B N B N trans
6297 1 988 991 992 995 # B N B N trans
6298 2 988 991 992 1109 # B N B N cis
6299 1 991 988 1105 1106 # B N B N trans
6300 2 991 988 1105 1110 # B N B N cis
6301 2 988 1105 1106 1101 # B N B N cis
6302 1 988 1105 1106 1107 # B N B N trans
6303 2 988 1105 1110 1109 # B N B N cis
6304 1 988 1105 1110 1111 # B N B N trans
6305 1 1105 988 991 990 # B N B N trans
6306 2 1105 988 991 992 # B N B N cis
6307 2 989 990 991 992 # B N B N cis
6308 1 990 989 994 993 # B N B N trans
6309 2 990 989 994 995 # B N B N cis
6310 1 989 994 993 998 # B N B N trans
6311 1 989 994 995 996 # B N B N trans
6312 2 989 994 995 992 # B N B N cis
6313 2 994 989 990 991 # B N B N cis
6314 2 990 991 992 995 # B N B N cis
6315 1 990 991 992 1109 # B N B N trans
6316 2 991 992 995 994 # B N B N cis
6317 1 991 992 995 996 # B N B N trans
6318 2 991 992 1109 1110 # B N B N cis
6319 1 991 992 1109 1114 # B N B N trans
6320 1 992 995 994 993 # B N B N trans
6321 1 992 995 996 999 # B N B N trans
6322 2 992 995 996 1113 # B N B N cis
6323 1 995 992 1109 1110 # B N B N trans
6324 2 995 992 1109 1114 # B N B N cis
6325 2 992 1109 1110 1105 # B N B N cis
6326 1 992 1109 1110 1111 # B N B N trans
6327 2 992 1109 1114 1113 # B N B N cis
6328 1 992 1109 1114 1115 # B N B N trans
6329 1 1109 992 995 994 # B N B N trans
6330 2 1109 992 995 996 # B N B N cis
6331 2 993 994 995 996 # B N B N cis
6332 1 994 993 998 997 # B N B N trans
6333 2 994 993 998 999 # B N B N cis
6334 1 993 998 997 1002 # B N B N trans
6335 1 993 998 999 1000 # B N B N trans
6336 2 993 998 999 996 # B N B N cis
6337 2 998 993 994 995 # B N B N cis
6338 2 994 995 996 999 # B N B N cis
6339 1 994 995 996 1113 # B N B N trans
6340 2 995 996 999 998 # B N B N cis
6341 1 995 996 999 1000 # B N B N trans
6342 2 995 996 1113 1114 # B N B N cis
6343 1 995 996 1113 1118 # B N B N trans
6344 1 996 999 998 997 # B N B N trans
6345 1 996 999 1000 1003 # B N B N trans
6346 2 996 999 1000 1117 # B N B N cis
6347 1 999 996 1113 1114 # B N B N trans
6348 2 999 996 1113 1118 # B N B N cis
6349 2 996 1113 1114 1109 # B N B N cis
6350 1 996 1113 1114 1115 # B N B N trans
6351 2 996 1113 1118 1117 # B N B N cis
6352 1 996 1113 1118 1119 # B N B N trans
6353 1 1113 996 999 998 # B N B N trans
6354 2 1113 996 999 1000 # B N B N cis
6355 2 997 998 999 1000 # B N B N cis
6356 1 998 997 1002 1001 # B N B N trans
6357 2 998 997 1002 1003 # B N B N cis
6358 1 997 1002 1001 1006 # B N B N trans
6359 1 997 1002 1003 1004 # B N B N trans
6360 2 997 1002 1003 1000 # B N B N cis
6361 2 1002 997 998 999 # B N B N cis
6362 2 998 999 1000 1003 # B N B N cis
6363 1 998 999 1000 1117 # B N B N trans
6364 2 999 1000 1003 1002 # B N B N cis
6365 1 999 1000 1003 1004 # B N B N trans
6366 2 999 1000 1117 1118 # B N B N cis
6367 1 999 1000 1117 1122 # B N B N trans
6368 1 1000 1003 1002 1001 # B N B N trans
6369 1 1000 1003 1004 1007 # B N B N trans
6370 2 1000 1003 1004 1121 # B N B N cis
6371 1 1003 1000 1117 1118 # B N B N trans
6372 2 1003 1000 1117 1122 # B N B N cis
6373 2 1000 1117 1118 1113 # B N B N cis
6374 1 1000 1117 1118 1119 # B N B N trans
6375 2 1000 1117 1122 1121 # B N B N cis
6376 1 1000 1117 1122 1123 # B N B N trans
6377 1 1117 1000 1003 1002 # B N B N trans
6378 2 1117 1000 1003 1004 # B N B N cis
6379 2 1001 1002 1003 1004 # B N B N cis
6380 1 1002 1001 1006 1005 # B N B N trans
6381 2 1002 1001 1006 1007 # B N B N cis
6382 1 1001 1006 1005 1010 # B N B N trans
6383 1 1001 1006 1007 1008 # B N B N trans
6384 2 1001 1006 1007 1004 # B N B N cis
6385 2 1006 1001 1002 1003 # B N B N cis
6386 2 1002 1003 1004 1007 # B N B N cis
6387 1 1002 1003 1004 1121 # B N B N trans
6388 2 1003 1004 1007 1006 # B N B N cis
6389 1 1003 1004 1007 1008 # B N B N trans
6390 2 1003 1004 1121 1122 # B N B N cis
6391 1 1003 1004 1121 1126 # B N B N trans
6392 1 1004 1007 1006 1005 # B N B N trans
6393 1 1004 1007 1008 1011 # B N B N trans
6394 2 1004 1007 1008 1125 # B N B N cis
6395 1 1007 1004 1121 1122 # B N B N trans
6396 2 1007 1004 1121 1126 # B N B N cis
6397 2 1004 1121 1122 1117 # B N B N cis
6398 1 1004 1121 1122 1123 # B N B N trans
6399 2 1004 1121 1126 1125 # B N B N cis
6400 1 1004 1121 1126 1127 # B N B N trans
6401 1 1121 1004 1007 1006 # B N B N trans
6402 2 1121 1004 1007 1008 # B N B N cis
6403 2 1005 1006 1007 1008 # B N B N cis
6404 1 1006 1005 1010 1009 # B N B N trans
6405 2 1006 1005 1010 1011 # B N B N cis
6406 1 1005 1010 1009 1014 # B N B N trans
6407 1 1005 1010 1011 1012 # B N B N trans
6408 2 1005 1010 1011 1008 # B N B N cis
6409 2 1010 1005 1006 1007 # B N B N cis
6410 2 1006 1007 1008 1011 # B N B N cis
6411 1 1006 1007 1008 1125 # B N B N trans
6412 2 1007 1008 1011 1010 # B N B N cis
6413 1 1007 1008 1011 1012 # B N B N trans
6414 2 1007 1008 1125 1126 # B N B N cis
6415 1 1007 1008 1125 1130 # B N B N trans
6416 1 1008 1011 1010 1009 # B N B N trans
6417 1 1008 1011 1012 1015 # B N B N trans
6418 2 1008 1011 1012 1129 # B N B N cis
6419 1 1011 1008 1125 1126 # B N B N trans
6420 2 1011 1008 1125 1130 # B N B N cis
6421 2 1008 1125 1126 1121 # B N B N cis
6422 1 1008 1125 1126 1127 # B N B N trans
6423 2 1008 1125 1130 1129 # B N B N cis
6424 1 1008 1125 1130 1131 # B N B N trans
6425 1 1125 1008 1011 1010 # B N B N trans
6426 2 1125 1008 1011 1012 # B N B N cis
6427 2 1009 1010 1011 1012 # B N B N cis
6428 1 1010 1009 1014 1013 # B N B N trans
6429 2 1010 1009 1014 1015 # B N B N cis
6430 1 1009 1014 1013 1018 # B N B N trans
6431 1 1009 1014 1015 1016 # B N B N trans
6432 2 1009 1014 1015 1012 # B N B N cis
6433 2 1014 1009 1010 1011 # B N B N cis
6434 2 1010 1011 1012 1015 # B N B N cis
6435 1 1010 1011 1012 1129 # B N B N trans
6436 2 1011 1012 1015 1014 # B N B N cis
6437 1 1011 1012 1015 1016 # B N B N trans
6438 2 1011 1012 1129 1130 # B N B N cis
6439 1 1011 1012 1129 1134 # B N B N trans
6440 1 1012 1015 1014 1013 # B N B N trans
6441 1 1012 1015 1016 1019 # B N B N trans
6442 2 1012 1015 1016 1133 # B N B N cis
6443 1 1015 1012 1129 1130 # B N B N trans
6444 2 1015 1012 1129 1134 # B N B N cis
6445 2 1012 1129 1130 1125 # B N B N cis
6446 1 1012 1129 1130 1131 # B N B N trans
6447 2 1012 1129 1134 1133 # B N B N cis
6448 1 1012 1129 1134 1135 # B N B N trans
6449 1 1129 1012 1015 1014 # B N B N trans
6450 2 1129 1012 1015 1016 # B N B N cis
6451 2 1013 1014 1015 1016 # B N B N cis
6452 1 1014 1013 1018 1017 # B N B N trans
6453 2 1014 1013 1018 1019 # B N B N cis
6454 1 1013 1018 1017 1022 # B N B N trans
6455 1 1013 1018 1019 1020 # B N B N trans
6456 2 1013 1018 1019 1016 # B N B N cis
6457 2 1018 1013 1014 1015 # B N B N cis
6458 2 1014 1015 1016 1019 # B N B N cis
6459 1 1014 1015 1016 1133 # B N B N trans
6460 2 1015 1016 1019 1018 # B N B N cis
6461 1 1015 1016 1019 1020 # B N B N trans
6462 2 1015 1016 1133 1134 # B N B N cis
6463 1 1015 1016 1133 1138 # B N B N trans
6464 1 1016 1019 1018 1017 # B N B N trans
6465 1 1016 1019 1020 1023 # B N B N trans
6466 2 1016 1019 1020 1137 # B N B N cis
6467 1 1019 1016 1133 1134 # B N B N trans
6468 2 1019 1016 1133 1138 # B N B N cis
6469 2 1016 1133 1134 1129 # B N B N cis
6470 1 1016 1133 1134 1135 # B N B N trans
6471 2 1016 1133 1138 1137 # B N B N cis
6472 1 1016 1133 1138 1139 # B N B N trans
6473 1 1133 1016 1019 1018 # B N B N trans
6474 2 1133 1016 1019 1020 # B N B N cis
6475 2 1017 1018 1019 1020 # B N B N cis
6476 1 1018 1017 1022 1021 # B N B N trans
6477 2 1018 1017 1022 1023 # B N B N cis
6478 1 1017 1022 1021 1026 # B N B N trans
6479 1 1017 1022 1023 1024 # B N B N trans
6480 2 1017 1022 1023 1020 # B N B N cis
6481 2 1022 1017 1018 1019 # B N B N cis
6482 2 1018 1019 1020 1023 # B N B N cis
6483 1 1018 1019 1020 1137 # B N B N trans
6484 2 1019 1020 1023 1022 # B N B N cis
6485 1 1019 1020 1023 1024 # B N B N trans
6486 2 1019 1020 1137 1138 # B N B N cis
6487 1 1019 1020 1137 1142 # B N B N trans
6488 1 1020 1023 1022 1021 # B N B N trans
6489 1 1020 1023 1024 1027 # B N B N trans
6490 2 1020 1023 1024 1141 # B N B N cis
6491 1 1023 1020 1137 1138 # B N B N trans
6492 2 1023 1020 1137 1142 # B N B N cis
6493 2 1020 1137 1138 1133 # B N B N cis
6494 1 1020 1137 1138 1139 # B N B N trans
6495 2 1020 1137 1142 1141 # B N B N cis
6496 1 1020 1137 1142 1143 # B N B N trans
6497 1 1137 1020 1023 1022 # B N B N trans
6498 2 1137 1020 1023 1024 # B N B N cis
6499 2 1021 1022 1023 1024 # B N B N cis
6500 1 1022 1021 1026 1025 # B N B N trans
6501 2 1022 1021 1026 1027 # B N B N cis
6502 1 1021 1026 1025 1030 # B N B N trans
6503 1 1021 1026 1027 1028 # B N B N trans
6504 2 1021 1026 1027 1024 # B N B N cis
6505 2 1026 1021 1022 1023 # B N B N cis
6506 2 1022 1023 1024 1027 # B N B N cis
6507 1 1022 1023 1024 1141 # B N B N trans
6508 2 1023 1024 1027 1026 # B N B N cis
6509 1 1023 1024 1027 1028 # B N B N trans
6510 2 1023 1024 1141 1142 # B N B N cis
6511 1 1023 1024 1141 1146 # B N B N trans
6512 1 1024 1027 1026 1025 # B N B N trans
6513 1 1024 1027 1028 1031 # B N B N trans
6514 2 1024 1027 1028 1145 # B N B N cis
6515 1 1027 1024 1141 1142 # B N B N trans
6516 2 1027 1024 1141 1146 # B N B N cis
6517 2 1024 1141 1142 1137 # B N B N cis
6518 1 1024 1141 1142 1143 # B N B N trans
6519 2 1024 1141 1146 1145 # B N B N cis
6520 1 1024 1141 1146 1147 # B N B N trans
6521 1 1141 1024 1027 1026 # B N B N trans
6522 2 1141 1024 1027 1028 # B N B N cis
6523 2 1025 1026 1027 1028 # B N B N cis
6524 1 1026 1025 1030 1029 # B N B N trans
6525 2 1026 1025 1030 1031 # B N B N cis
6526 1 1025 1030 1029 1034 # B N B N trans
6527 1 1025 1030 1031 1032 # B N B N trans
6528 2 1025 1030 1031 1028 # B N B N cis
6529 2 1030 1025 1026 1027 # B N B N cis
6530 2 1026 1027 1028 1031 # B N B N cis
6531 1 1026 1027 1028 1145 # B N B N trans
6532 2 1027 1028 1031 1030 # B N B N cis
6533 1 1027 1028 1031 1032 # B N B N trans
6534 2 1027 1028 1145 1146 # B N B N cis
6535 1 1027 1028 1145 1150 # B N B N trans
6536 1 1028 1031 1030 1029 # B N B N trans
6537 1 1028 1031 1032 1035 # B N B N trans
6538 2 1028 1031 1032 1149 # B N B N cis
6539 1 1031 1028 1145 1146 # B N B N trans
6540 2 1031 1028 1145 1150 # B N B N cis
6541 2 1028 1145 1146 1141 # B N B N cis
6542 1 1028 1145 1146 1147 # B N B N trans
6543 2 1028 1145 1150 1149 # B N B N cis
6544 1 1028 1145 1150 1151 # B N B N trans
6545 1 1145 1028 1031 1030 # B N B N trans
6546 2 1145 1028 1031 1032 # B N B N cis
6547 2 1029 1030 1031 1032 # B N B N cis
6548 1 1030 1029 1034 1033 # B N B N trans
6549 2 1030 1029 1034 1035 # B N B N cis
6550 1 1029 1034 1033 1038 # B N B N trans
6551 1 1029 1034 1035 1036 # B N B N trans
6552 2 1029 1034 1035 1032 # B N B N cis
6553 2 1034 1029 1030 1031 # B N B N cis
6554 2 1030 1031 1032 1035 # B N B N cis
6555 1 1030 1031 1032 1149 # B N B N trans
6556 2 1031 1032 1035 1034 # B N B N cis
6557 1 1031 1032 1035 1036 # B N B N trans
6558 2 1031 1032 1149 1150 # B N B N cis
6559 1 1031 1032 1149 1154 # B N B N trans
6560 1 1032 1035 1034 1033 # B N B N trans
6561 1 1032 1035 1036 1039 # B N B N trans
6562 2 1032 1035 1036 1153 # B N B N cis
6563 1 1035 1032 1149 1150 # B N B N trans
6564 2 1035 1032 1149 1154 # B N B N cis
6565 2 1032 1149 1150 1145 # B N B N cis
6566 1 1032 1149 1150 1151 # B N B N trans
6567 2 1032 1149 1154 1153 # B N B N cis
6568 1 1032 1149 1154 1155 # B N B N trans
6569 1 1149 1032 1035 1034 # B N B N trans
6570 2 1149 1032 1035 1036 # B N B N cis
6571 2 1033 1034 1035 1036 # B N B N cis
6572 1 1034 1033 1038 1037 # B N B N trans
6573 2 1034 1033 1038 1039 # B N B N cis
6574 1 1033 1038 1037 1042 # B N B N trans
6575 1 1033 1038 1039 1040 # B N B N trans
6576 2 1033 1038 1039 1036 # B N B N cis
6577 2 1038 1033 1034 1035 # B N B N cis
6578 2 1034 1035 1036 1039 # B N B N cis
6579 1 1034 1035 1036 1153 # B N B N trans
6580 2 1035 1036 1039 1038 # B N B N cis
6581 1 1035 1036 1039 1040 # B N B N trans
6582 2 1035 1036 1153 1154 # B N B N cis
6583 1 1035 1036 1153 1158 # B N B N trans
6584 1 1036 1039 1038 1037 # B N B N trans
6585 1 1036 1039 1040 1043 # B N B N trans
6586 2 1036 1039 1040 1157 # B N B N cis
6587 1 1039 1036 1153 1154 # B N B N trans
6588 2 1039 1036 1153 1158 # B N B N cis
6589 2 1036 1153 1154 1149 # B N B N cis
6590 1 1036 1153 1154 1155 # B N B N trans
6591 2 1036 1153 1158 1157 # B N B N cis
6592 1 1036 1153 1158 1159 # B N B N trans
6593 1 1153 1036 1039 1038 # B N B N trans
6594 2 1153 1036 1039 1040 # B N B N cis
6595 2 1037 1038 1039 1040 # B N B N cis
6596 1 1038 1037 1042 1041 # B N B N trans
6597 2 1038 1037 1042 1043 # B N B N cis
6598 1 1037 1042 1041 1046 # B N B N trans
6599 1 1037 1042 1043 1044 # B N B N trans
6600 2 1037 1042 1043 1040 # B N B N cis
6601 2 1042 1037 1038 1039 # B N B N cis
6602 2 1038 1039 1040 1043 # B N B N cis
6603 1 1038 1039 1040 1157 # B N B N trans
6604 2 1039 1040 1043 1042 # B N B N cis
6605 1 1039 1040 1043 1044 # B N B N trans
6606 2 1039 1040 1157 1158 # B N B N cis
6607 1 1039 1040 1157 1162 # B N B N trans
6608 1 1040 1043 1042 1041 # B N B N trans
6609 1 1040 1043 1044 1047 # B N B N trans
6610 2 1040 1043 1044 1161 # B N B N cis
6611 1 1043 1040 1157 1158 # B N B N trans
6612 2 1043 1040 1157 1162 # B N B N cis
6613 2 1040 1157 1158 1153 # B N B N cis
6614 1 1040 1157 1158 1159 # B N B N trans
6615 2 1040 1157 1162 1161 # B N B N cis
6616 1 1040 1157 1162 1163 # B N B N trans
6617 1 1157 1040 1043 1042 # B N B N trans
6618 2 1157 1040 1043 1044 # B N B N cis
6619 2 1041 1042 1043 1044 # B N B N cis
6620 1 1042 1041 1046 1045 # B N B N trans
6621 2 1042 1041 1046 1047 # B N B N cis
6622 1 1041 1046 1045 1050 # B N B N trans
6623 1 1041 1046 1047 1048 # B N B N trans
6624 2 1041 1046 1047 1044 # B N B N cis
6625 2 1046 1041 1042 1043 # B N B N cis
6626 2 1042 1043 1044 1047 # B N B N cis
6627 1 1042 1043 1044 1161 # B N B N trans
6628 2 1043 1044 1047 1046 # B N B N cis
6629 1 1043 1044 1047 1048 # B N B N trans
6630 2 1043 1044 1161 1162 # B N B N cis
6631 1 1043 1044 1161 1166 # B N B N trans
6632 1 1044 1047 1046 1045 # B N B N trans
6633 1 1044 1047 1048 1051 # B N B N trans
6634 2 1044 1047 1048 1165 # B N B N cis
6635 1 1047 1044 1161 1162 # B N B N trans
6636 2 1047 1044 1161 1166 # B N B N cis
6637 2 1044 1161 1162 1157 # B N B N cis
6638 1 1044 1161 1162 1163 # B N B N trans
6639 2 1044 1161 1166 1165 # B N B N cis
6640 1 1044 1161 1166 1167 # B N B N trans
6641 1 1161 1044 1047 1046 # B N B N trans
6642 2 1161 1044 1047 1048 # B N B N cis
6643 2 1045 1046 1047 1048 # B N B N cis
6644 1 1046 1045 1050 1049 # B N B N trans
6645 2 1046 1045 1050 1051 # B N B N cis
6646 1 1045 1050 1049 1054 # B N B N trans
6647 1 1045 1050 1051 1052 # B N B N trans
6648 2 1045 1050 1051 1048 # B N B N cis
6649 2 1050 1045 1046 1047 # B N B N cis
6650 2 1046 1047 1048 1051 # B N B N cis
6651 1 1046 1047 1048 1165 # B N B N trans
6652 2 1047 1048 1051 1050 # B N B N cis
6653 1 1047 1048 1051 1052 # B N B N trans
6654 2 1047 1048 1165 1166 # B N B N cis
6655 1 1047 1048 1165 1170 # B N B N trans
6656 1 1048 1051 1050 1049 # B N B N trans
6657 1 1048 1051 1052 1055 # B N B N trans
6658 2 1048 1051 1052 1169 # B N B N cis
6659 1 1051 1048 1165 1166 # B N B N trans
6660 2 1051 1048 1165 1170 # B N B N cis
6661 2 1048 1165 1166 1161 # B N B N cis
6662 1 1048 1165 1166 1167 # B N B N trans
6663 2 1048 1165 1170 1169 # B N B N cis
6664 1 1048 1165 1170 1171 # B N B N trans
6665 1 1165 1048 1051 1050 # B N B N trans
6666 2 1165 1048 1051 1052 # B N B N cis
6667 2 1049 1050 1051 1052 # B N B N cis
6668 1 1050 1049 1054 1053 # B N B N trans
6669 2 1050 1049 1054 1055 # B N B N cis
6670 1 1049 1054 1053 1058 # B N B N trans
6671 1 1049 1054 1055 1056 # B N B N trans
6672 2 1049 1054 1055 1052 # B N B N cis
6673 2 1054 1049 1050 1051 # B N B N cis
6674 2 1050 1051 1052 1055 # B N B N cis
6675 1 1050 1051 1052 1169 # B N B N trans
6676 2 1051 1052 1055 1054 # B N B N cis
6677 1 1051 1052 1055 1056 # B N B N trans
6678 2 1051 1052 1169 1170 # B N B N cis
6679 1 1051 1052 1169 1174 # B N B N trans
6680 1 1052 1055 1054 1053 # B N B N trans
6681 1 1052 1055 1056 1059 # B N B N trans
6682 2 1052 1055 1056 1173 # B N B N cis
6683 1 1055 1052 1169 1170 # B N B N trans
6684 2 1055 1052 1169 1174 # B N B N cis
6685 2 1052 1169 1170 1165 # B N B N cis
6686 1 1052 1169 1170 1171 # B N B N trans
6687 2 1052 1169 1174 1173 # B N B N cis
6688 1 1052 1169 1174 1175 # B N B N trans
6689 1 1169 1052 1055 1054 # B N B N trans
6690 2 1169 1052 1055 1056 # B N B N cis
6691 2 1053 1054 1055 1056 # B N B N cis
6692 1 1054 1053 1058 1057 # B N B N trans
6693 2 1054 1053 1058 1059 # B N B N cis
6694 1 1053 1058 1057 1062 # B N B N trans
6695 1 1053 1058 1059 1060 # B N B N trans
6696 2 1053 1058 1059 1056 # B N B N cis
6697 2 1058 1053 1054 1055 # B N B N cis
6698 2 1054 1055 1056 1059 # B N B N cis
6699 1 1054 1055 1056 1173 # B N B N trans
6700 2 1055 1056 1059 1058 # B N B N cis
6701 1 1055 1056 1059 1060 # B N B N trans
6702 2 1055 1056 1173 1174 # B N B N cis
6703 1 1055 1056 1173 1178 # B N B N trans
6704 1 1056 1059 1058 1057 # B N B N trans
6705 1 1056 1059 1060 1063 # B N B N trans
6706 2 1056 1059 1060 1177 # B N B N cis
6707 1 1059 1056 1173 1174 # B N B N trans
6708 2 1059 1056 1173 1178 # B N B N cis
6709 2 1056 1173 1174 1169 # B N B N cis
6710 1 1056 1173 1174 1175 # B N B N trans
6711 2 1056 1173 1178 1177 # B N B N cis
6712 1 1056 1173 1178 1179 # B N B N trans
6713 1 1173 1056 1059 1058 # B N B N trans
6714 2 1173 1056 1059 1060 # B N B N cis
6715 2 1057 1058 1059 1060 # B N B N cis
6716 1 1058 1057 1062 1061 # B N B N trans
6717 2 1058 1057 1062 1063 # B N B N cis
6718 1 1057 1062 1061 1066 # B N B N trans
6719 1 1057 1062 1063 1064 # B N B N trans
6720 2 1057 1062 1063 1060 # B N B N cis
6721 2 1062 1057 1058 1059 # B N B N cis
6722 2 1058 1059 1060 1063 # B N B N cis
6723 1 1058 1059 1060 1177 # B N B N trans
6724 2 1059 1060 1063 1062 # B N B N cis
6725 1 1059 1060 1063 1064 # B N B N trans
6726 2 1059 1060 1177 1178 # B N B N cis
6727 1 1059 1060 1177 1182 # B N B N trans
6728 1 1060 1063 1062 1061 # B N B N trans
6729 1 1060 1063 1064 1067 # B N B N trans
6730 2 1060 1063 1064 1181 # B N B N cis
6731 1 1063 1060 1177 1178 # B N B N trans
6732 2 1063 1060 1177 1182 # B N B N cis
6733 2 1060 1177 1178 1173 # B N B N cis
6734 1 1060 1177 1178 1179 # B N B N trans
6735 2 1060 1177 1182 1181 # B N B N cis
6736 1 1060 1177 1182 1183 # B N B N trans
6737 1 1177 1060 1063 1062 # B N B N trans
6738 2 1177 1060 1063 1064 # B N B N cis
6739 2 1061 1062 1063 1064 # B N B N cis
6740 1 1062 1061 1066 1065 # B N B N trans
6741 2 1062 1061 1066 1067 # B N B N cis
6742 1 1061 1066 1065 1070 # B N B N trans
6743 1 1061 1066 1067 1068 # B N B N trans
6744 2 1061 1066 1067 1064 # B N B N cis
6745 2 1066 1061 1062 1063 # B N B N cis
6746 2 1062 1063 1064 1067 # B N B N cis
6747 1 1062 1063 1064 1181 # B N B N trans
6748 2 1063 1064 1067 1066 # B N B N cis
6749 1 1063 1064 1067 1068 # B N B N trans
6750 2 1063 1064 1181 1182 # B N B N cis
6751 1 1063 1064 1181 1186 # B N B N trans
6752 1 1064 1067 1066 1065 # B N B N trans
6753 1 1064 1067 1068 1071 # B N B N trans
6754 2 1064 1067 1068 1185 # B N B N cis
6755 1 1067 1064 1181 1182 # B N B N trans
6756 2 1067 1064 1181 1186 # B N B N cis
6757 2 1064 1181 1182 1177 # B N B N cis
6758 1 1064 1181 1182 1183 # B N B N trans
6759 2 1064 1181 1186 1185 # B N B N cis
6760 1 1064 1181 1186 1187 # B N B N trans
6761 1 1181 1064 1067 1066 # B N B N trans
6762 2 1181 1064 1067 1068 # B N B N cis
6763 2 1065 1066 1067 1068 # B N B N cis
6764 1 1066 1065 1070 1069 # B N B N trans
6765 2 1066 1065 1070 1071 # B N B N cis
6766 1 1065 1070 1069 1074 # B N B N trans
6767 1 1065 1070 1071 1072 # B N B N trans
6768 2 1065 1070 1071 1068 # B N B N cis
6769 2 1070 1065 1066 1067 # B N B N cis
6770 2 1066 1067 1068 1071 # B N B N cis
6771 1 1066 1067 1068 1185 # B N B N trans
6772 2 1067 1068 1071 1070 # B N B N cis
6773 1 1067 1068 1071 1072 # B N B N trans
6774 2 1067 1068 1185 1186 # B N B N cis
6775 1 1067 1068 1185 1190 # B N B N trans
6776 1 1068 1071 1070 1069 # B N B N trans
6777 1 1068 1071 1072 1075 # B N B N trans
6778 2 1068 1071 1072 1189 # B N B N cis
6779 1 1071 1068 1185 1186 # B N B N trans
6780 2 1071 1068 1185 1190 # B N B N cis
6781 2 1068 1185 1186 1181 # B N B N cis
6782 1 1068 1185 1186 1187 # B N B N trans
6783 2 1068 1185 1190 1189 # B N B N cis
6784 1 1068 1185 1190 1191 # B N B N trans
6785 1 1185 1068 1071 1070 # B N B N trans
6786 2 1185 1068 1071 1072 # B N B N cis
6787 2 1069 1070 1071 1072 # B N B N cis
6788 1 1070 1069 1074 1073 # B N B N trans
6789 2 1070 1069 1074 1075 # B N B N cis
6790 1 1069 1074 1073 1078 # B N B N trans
6791 1 1069 1074 1075 1076 # B N B N trans
6792 2 1069 1074 1075 1072 # B N B N cis
6793 2 1074 1069 1070 1071 # B N B N cis
6794 2 1070 1071 1072 1075 # B N B N cis
6795 1 1070 1071 1072 1189 # B N B N trans
6796 2 1071 1072 1075 1074 # B N B N cis
6797 1 1071 1072 1075 1076 # B N B N trans
6798 2 1071 1072 1189 1190 # B N B N cis
6799 1 1071 1072 1189 1194 # B N B N trans
6800 1 1072 1075 1074 1073 # B N B N trans
6801 1 1072 1075 1076 1079 # B N B N trans
6802 2 1072 1075 1076 1193 # B N B N cis
6803 1 1075 1072 1189 1190 # B N B N trans
6804 2 1075 1072 1189 1194 # B N B N cis
6805 2 1072 1189 1190 1185 # B N B N cis
6806 1 1072 1189 1190 1191 # B N B N trans
6807 2 1072 1189 1194 1193 # B N B N cis
6808 1 1072 1189 1194 1195 # B N B N trans
6809 1 1189 1072 1075 1074 # B N B N trans
6810 2 1189 1072 1075 1076 # B N B N cis
6811 2 1073 1074 1075 1076 # B N B N cis
6812 1 1074 1073 1078 1077 # B N B N trans
6813 2 1074 1073 1078 1079 # B N B N cis
6814 1 1073 1078 1079 1080 # B N B N trans
6815 2 1073 1078 1079 1076 # B N B N cis
6816 2 1078 1073 1074 1075 # B N B N cis
6817 2 1074 1075 1076 1079 # B N B N cis
6818 1 1074 1075 1076 1193 # B N B N trans
6819 2 1075 1076 1079 1078 # B N B N cis
6820 1 1075 1076 1079 1080 # B N B N trans
6821 2 1075 1076 1193 1194 # B N B N cis
6822 1 1075 1076 1193 1198 # B N B N trans
6823 1 1076 1079 1078 1077 # B N B N trans
6824 2 1076 1079 1080 1197 # B N B N cis
6825 1 1079 1076 1193 1194 # B N B N trans
6826 2 1079 1076 1193 1198 # B N B N cis
6827 2 1076 1193 1194 1189 # B N B N cis
6828 1 1076 1193 1194 1195 # B N B N trans
6829 2 1076 1193 1198 1197 # B N B N cis
6830 1 1076 1193 1198 1199 # B N B N trans
6831 1 1193 1076 1079 1078 # B N B N trans
6832 2 1193 1076 1079 1080 # B N B N cis
6833 2 1077 1078 1079 1080 # B N B N cis
6834 1 1078 1079 1080 1197 # B N B N trans
6835 2 1079 1080 1197 1198 # B N B N cis
6836 1 1079 1080 1197 1082 # B N B N trans
6837 2 1080 1197 1198 1193 # B N B N cis
6838 1 1080 1197 1198 1199 # B N B N trans
6839 2 1080 1197 1082 1081 # B N B N cis
6840 1 1080 1197 1082 1083 # B N B N trans
6841 2 1081 1082 1083 1084 # B N B N cis
6842 1 1081 1082 1083 1200 # B N B N trans
6843 1 1081 1082 1197 1198 # B N B N trans
6844 1 1082 1081 1086 1085 # B N B N trans
6845 2 1082 1081 1086 1087 # B N B N cis
6846 1 1081 1086 1085 1090 # B N B N trans
6847 1 1081 1086 1087 1088 # B N B N trans
6848 2 1081 1086 1087 1084 # B N B N cis
6849 2 1086 1081 1082 1083 # B N B N cis
6850 1 1086 1081 1082 1197 # B N B N trans
6851 2 1082 1083 1084 1087 # B N B N cis
6852 1 1082 1083 1084 1201 # B N B N trans
6853 2 1082 1083 1200 1199 # B N B N cis
6854 1 1082 1083 1200 1317 # B N B N trans
6855 2 1083 1082 1197 1198 # B N B N cis
6856 1 1082 1197 1198 1193 # B N B N trans
6857 2 1082 1197 1198 1199 # B N B N cis
6858 1 1197 1082 1083 1084 # B N B N trans
6859 2 1197 1082 1083 1200 # B N B N cis
6860 2 1083 1084 1087 1086 # B N B N cis
6861 1 1083 1084 1087 1088 # B N B N trans
6862 1 1083 1084 1201 1206 # B N B N trans
6863 2 1083 1084 1201 1202 # B N B N cis
6864 1 1084 1083 1200 1199 # B N B N trans
6865 2 1084 1083 1200 1317 # B N B N cis
6866 2 1083 1200 1199 1198 # B N B N cis
6867 1 1083 1200 1199 1196 # B N B N trans
6868 2 1083 1200 1317 1202 # B N B N cis
6869 1 1083 1200 1317 1318 # B N B N trans
6870 1 1200 1083 1084 1087 # B N B N trans
6871 2 1200 1083 1084 1201 # B N B N cis
6872 1 1084 1087 1086 1085 # B N B N trans
6873 1 1084 1087 1088 1091 # B N B N trans
6874 2 1084 1087 1088 1205 # B N B N cis
6875 2 1087 1084 1201 1206 # B N B N cis
6876 1 1087 1084 1201 1202 # B N B N trans
6877 2 1084 1201 1206 1205 # B N B N cis
6878 1 1084 1201 1206 1207 # B N B N trans
6879 2 1084 1201 1202 1317 # B N B N cis
6880 1 1084 1201 1202 1203 # B N B N trans
6881 1 1201 1084 1087 1086 # B N B N trans
6882 2 1201 1084 1087 1088 # B N B N cis
6883 2 1085 1086 1087 1088 # B N B N cis
6884 1 1086 1085 1090 1089 # B N B N trans
6885 2 1086 1085 1090 1091 # B N B N cis
6886 1 1085 1090 1089 1094 # B N B N trans
6887 1 1085 1090 1091 1092 # B N B N trans
6888 2 1085 1090 1091 1088 # B N B N cis
6889 2 1090 1085 1086 1087 # B N B N cis
6890 2 1086 1087 1088 1091 # B N B N cis
6891 1 1086 1087 1088 1205 # B N B N trans
6892 2 1087 1088 1091 1090 # B N B N cis
6893 1 1087 1088 1091 1092 # B N B N trans
6894 1 1087 1088 1205 1210 # B N B N trans
6895 2 1087 1088 1205 1206 # B N B N cis
6896 1 1088 1091 1090 1089 # B N B N trans
6897 1 1088 1091 1092 1095 # B N B N trans
6898 2 1088 1091 1092 1209 # B N B N cis
6899 2 1091 1088 1205 1210 # B N B N cis
6900 1 1091 1088 1205 1206 # B N B N trans
6901 2 1088 1205 1210 1209 # B N B N cis
6902 1 1088 1205 1210 1211 # B N B N trans
6903 2 1088 1205 1206 1201 # B N B N cis
6904 1 1088 1205 1206 1207 # B N B N trans
6905 1 1205 1088 1091 1090 # B N B N trans
6906 2 1205 1088 1091 1092 # B N B N cis
6907 2 1089 1090 1091 1092 # B N B N cis
6908 1 1090 1089 1094 1093 # B N B N trans
6909 2 1090 1089 1094 1095 # B N B N cis
6910 1 1089 1094 1093 1098 # B N B N trans
6911 1 1089 1094 1095 1096 # B N B N trans
6912 2 1089 1094 1095 1092 # B N B N cis
6913 2 1094 1089 1090 1091 # B N B N cis
6914 2 1090 1091 1092 1095 # B N B N cis
6915 1 1090 1091 1092 1209 # B N B N trans
6916 2 1091 1092 1095 1094 # B N B N cis
6917 1 1091 1092 1095 1096 # B N B N trans
6918 1 1091 1092 1209 1214 # B N B N trans
6919 2 1091 1092 1209 1210 # B N B N cis
6920 1 1092 1095 1094 1093 # B N B N trans
6921 1 1092 1095 1096 1099 # B N B N trans
6922 2 1092 1095 1096 1213 # B N B N cis
6923 2 1095 1092 1209 1214 # B N B N cis
6924 1 1095 1092 1209 1210 # B N B N trans
6925 2 1092 1209 1214 1213 # B N B N cis
6926 1 1092 1209 1214 1215 # B N B N trans
6927 2 1092 1209 1210 1205 # B N B N cis
6928 1 1092 1209 1210 1211 # B N B N trans
6929 1 1209 1092 1095 1094 # B N B N trans
6930 2 1209 1092 1095 1096 # B N B N cis
6931 2 1093 1094 1095 1096 # B N B N cis
6932 1 1094 1093 1098 1097 # B N B N trans
6933 2 1094 1093 1098 1099 # B N B N cis
6934 1 1093 1098 1097 1102 # B N B N trans
6935 1 1093 1098 1099 1100 # B N B N trans
6936 2 1093 1098 1099 1096 # B N B N cis
6937 2 1098 1093 1094 1095 # B N B N cis
6938 2 1094 1095 1096 1099 # B N B N cis
6939 1 1094 1095 1096 1213 # B N B N trans
6940 2 1095 1096 1099 1098 # B N B N cis
6941 1 1095 1096 1099 1100 # B N B N trans
6942 1 1095 1096 1213 1218 # B N B N trans
6943 2 1095 1096 1213 1214 # B N B N cis
6944 1 1096 1099 1098 1097 # B N B N trans
6945 1 1096 1099 1100 1103 # B N B N trans
6946 2 1096 1099 1100 1217 # B N B N cis
6947 2 1099 1096 1213 1218 # B N B N cis
6948 1 1099 1096 1213 1214 # B N B N trans
6949 2 1096 1213 1218 1217 # B N B N cis
6950 1 1096 1213 1218 1219 # B N B N trans
6951 2 1096 1213 1214 1209 # B N B N cis
6952 1 1096 1213 1214 1215 # B N B N trans
6953 1 1213 1096 1099 1098 # B N B N trans
6954 2 1213 1096 1099 1100 # B N B N cis
6955 2 1097 1098 1099 1100 # B N B N cis
6956 1 1098 1097 1102 1101 # B N B N trans
6957 2 1098 1097 1102 1103 # B N B N cis
6958 1 1097 1102 1101 1106 # B N B N trans
6959 1 1097 1102 1103 1104 # B N B N trans
6960 2 1097 1102 1103 1100 # B N B N cis
6961 2 1102 1097 1098 1099 # B N B N cis
6962 2 1098 1099 1100 1103 # B N B N cis
6963 1 1098 1099 1100 1217 # B N B N trans
6964 2 1099 1100 1103 1102 # B N B N cis
6965 1 1099 1100 1103 1104 # B N B N trans
6966 1 1099 1100 1217 1222 # B N B N trans
6967 2 1099 1100 1217 1218 # B N B N cis
6968 1 1100 1103 1102 1101 # B N B N trans
6969 1 1100 1103 1104 1107 # B N B N trans
6970 2 1100 1103 1104 1221 # B N B N cis
6971 2 1103 1100 1217 1222 # B N B N cis
6972 1 1103 1100 1217 1218 # B N B N trans
6973 2 1100 1217 1222 1221 # B N B N cis
6974 1 1100 1217 1222 1223 # B N B N trans
6975 2 1100 1217 1218 1213 # B N B N cis
6976 1 1100 1217 1218 1219 # B N B N trans
6977 1 1217 1100 1103 1102 # B N B N trans
6978 2 1217 1100 1103 1104 # B N B N cis
6979 2 1101 1102 1103 1104 # B N B N cis
6980 1 1102 1101 1106 1105 # B N B N trans
6981 2 1102 1101 1106 1107 # B N B N cis
6982 1 1101 1106 1105 1110 # B N B N trans
6983 1 1101 1106 1107 1108 # B N B N trans
6984 2 1101 1106 1107 1104 # B N B N cis
6985 2 1106 1101 1102 1103 # B N B N cis
6986 2 1102 1103 1104 1107 # B N B N cis
6987 1 1102 1103 1104 1221 # B N B N trans
6988 2 1103 1104 1107 1106 # B N B N cis
6989 1 1103 1104 1107 1108 # B N B N trans
6990 1 1103 1104 1221 1226 # B N B N trans
6991 2 1103 1104 1221 1222 # B N B N cis
6992 1 1104 1107 1106 1105 # B N B N trans
6993 1 1104 1107 1108 1111 # B N B N trans
6994 2 1104 1107 1108 1225 # B N B N cis
6995 2 1107 1104 1221 1226 # B N B N cis
6996 1 1107 1104 1221 1222 # B N B N trans
6997 2 1104 1221 1226 1225 # B N B N cis
6998 1 1104 1221 1226 1227 # B N B N trans
6999 2 1104 1221 1222 1217 # B N B N cis
7000 1 1104 1221 1222 1223 # B N B N trans
7001 1 1221 1104 1107 1106 # B N B N trans
7002 2 1221 1104 1107 1108 # B N B N cis
7003 2 1105 1106 1107 1108 # B N B N cis
7004 1 1106 1105 1110 1109 # B N B N trans
7005 2 1106 1105 1110 1111 # B N B N cis
7006 1 1105 1110 1109 1114 # B N B N trans
7007 1 1105 1110 1111 1112 # B N B N trans
7008 2 1105 1110 1111 1108 # B N B N cis
7009 2 1110 1105 1106 1107 # B N B N cis
7010 2 1106 1107 1108 1111 # B N B N cis
7011 1 1106 1107 1108 1225 # B N B N trans
7012 2 1107 1108 1111 1110 # B N B N cis
7013 1 1107 1108 1111 1112 # B N B N trans
7014 1 1107 1108 1225 1230 # B N B N trans
7015 2 1107 1108 1225 1226 # B N B N cis
7016 1 1108 1111 1110 1109 # B N B N trans
7017 1 1108 1111 1112 1115 # B N B N trans
7018 2 1108 1111 1112 1229 # B N B N cis
7019 2 1111 1108 1225 1230 # B N B N cis
7020 1 1111 1108 1225 1226 # B N B N trans
7021 2 1108 1225 1230 1229 # B N B N cis
7022 1 1108 1225 1230 1231 # B N B N trans
7023 2 1108 1225 1226 1221 # B N B N cis
7024 1 1108 1225 1226 1227 # B N B N trans
7025 1 1225 1108 1111 1110 # B N B N trans
7026 2 1225 1108 1111 1112 # B N B N cis
7027 2 1109 1110 1111 1112 # B N B N cis
7028 1 1110 1109 1114 1113 # B N B N trans
7029 2 1110 1109 1114 1115 # B N B N cis
7030 1 1109 1114 1113 1118 # B N B N trans
7031 1 1109 1114 1115 1116 # B N B N trans
7032 2 1109 1114 1115 1112 # B N B N cis
7033 2 1114 1109 1110 1111 # B N B N cis
7034 2 1110 1111 1112 1115 # B N B N cis
7035 1 1110 1111 1112 1229 # B N B N trans
7036 2 1111 1112 1115 1114 # B N B N cis
7037 1 1111 1112 1115 1116 # B N B N trans
7038 1 1111 1112 1229 1234 # B N B N trans
7039 2 1111 1112 1229 1230 # B N B N cis
7040 1 1112 1115 1114 1113 # B N B N trans
7041 1 1112 1115 1116 1119 # B N B N trans
7042 2 1112 1115 1116 1233 # B N B N cis
7043 2 1115 1112 1229 1234 # B N B N cis
7044 1 1115 1112 1229 1230 # B N B N trans
7045 2 1112 1229 1234 1233 # B N B N cis
7046 1 1112 1229 1234 1235 # B N B N trans
7047 2 1112 1229 1230 1225 # B N B N cis
7048 1 1112 1229 1230 1231 # B N B N trans
7049 1 1229 1112 1115 1114 # B N B N trans
7050 2 1229 1112 1115 1116 # B N B N cis
7051 2 1113 1114 1115 1116 # B N B N cis
7052 1 1114 1113 1118 1117 # B N B N trans
7053 2 1114 1113 1118 1119 # B N B N cis
7054 1 1113 1118 1117 1122 # B N B N trans
7055 1 1113 1118 1119 1120 # B N B N trans
7056 2 1113 1118 1119 1116 # B N B N cis
7057 2 1118 1113 1114 1115 # B N B N cis
7058 2 1114 1115 1116 1119 # B N B N cis
7059 1 1114 1115 1116 1233 # B N B N trans
7060 2 1115 1116 1119 1118 # B N B N cis
7061 1 1115 1116 1119 1120 # B N B N trans
7062 1 1115 1116 1233 1238 # B N B N trans
7063 2 1115 1116 1233 1234 # B N B N cis
7064 1 1116 1119 1118 1117 # B N B N trans
7065 1 1116 1119 1120 1123 # B N B N trans
7066 2 1116 1119 1120 1237 # B N B N cis
7067 2 1119 1116 1233 1238 # B N B N cis
7068 1 1119 1116 1233 1234 # B N B N trans
7069 2 1116 1233 1238 1237 # B N B N cis
7070 1 1116 1233 1238 1239 # B N B N trans
7071 2 1116 1233 1234 1229 # B N B N cis
7072 1 1116 1233 1234 1235 # B N B N trans
7073 1 1233 1116 1119 1118 # B N B N trans
7074 2 1233 1116 1119 1120 # B N B N cis
7075 2 1117 1118 1119 1120 # B N B N cis
7076 1 1118 1117 1122 1121 # B N B N trans
7077 2 1118 1117 1122 1123 # B N B N cis
7078 1 1117 1122 1121 1126 # B N B N trans
7079 1 1117 1122 1123 1124 # B N B N trans
7080 2 1117 1122 1123 1120 # B N B N cis
7081 2 1122 1117 1118 1119 # B N B N cis
7082 2 1118 1119 1120 1123 # B N B N cis
7083 1 1118 1119 1120 1237 # B N B N trans
7084 2 1119 1120 1123 1122 # B N B N cis
7085 1 1119 1120 1123 1124 # B N B N trans
7086 1 1119 1120 1237 1242 # B N B N trans
7087 2 1119 1120 1237 1238 # B N B N cis
7088 1 1120 1123 1122 1121 # B N B N trans
7089 1 1120 1123 1124 1127 # B N B N trans
7090 2 1120 1123 1124 1241 # B N B N cis
7091 2 1123 1120 1237 1242 # B N B N cis
7092 1 1123 1120 1237 1238 # B N B N trans
7093 2 1120 1237 1242 1241 # B N B N cis
7094 1 1120 1237 1242 1243 # B N B N trans
7095 2 1120 1237 1238 1233 # B N B N cis
7096 1 1120 1237 1238 1239 # B N B N trans
7097 1 1237 1120 1123 1122 # B N B N trans
7098 2 1237 1120 1123 1124 # B N B N cis
7099 2 1121 1122 1123 1124 # B N B N cis
7100 1 1122 1121 1126 1125 # B N B N trans
7101 2 1122 1121 1126 1127 # B N B N cis
7102 1 1121 1126 1125 1130 # B N B N trans
7103 1 1121 1126 1127 1128 # B N B N trans
7104 2 1121 1126 1127 1124 # B N B N cis
7105 2 1126 1121 1122 1123 # B N B N cis
7106 2 1122 1123 1124 1127 # B N B N cis
7107 1 1122 1123 1124 1241 # B N B N trans
7108 2 1123 1124 1127 1126 # B N B N cis
7109 1 1123 1124 1127 1128 # B N B N trans
7110 1 1123 1124 1241 1246 # B N B N trans
7111 2 1123 1124 1241 1242 # B N B N cis
7112 1 1124 1127 1126 1125 # B N B N trans
7113 1 1124 1127 1128 1131 # B N B N trans
7114 2 1124 1127 1128 1245 # B N B N cis
7115 2 1127 1124 1241 1246 # B N B N cis
7116 1 1127 1124 1241 1242 # B N B N trans
7117 2 1124 1241 1246 1245 # B N B N cis
7118 1 1124 1241 1246 1247 # B N B N trans
7119 2 1124 1241 1242 1237 # B N B N cis
7120 1 1124 1241 1242 1243 # B N B N trans
7121 1 1241 1124 1127 1126 # B N B N trans
7122 2 1241 1124 1127 1128 # B N B N cis
7123 2 1125 1126 1127 1128 # B N B N cis
7124 1 1126 1125 1130 1129 # B N B N trans
7125 2 1126 1125 1130 1131 # B N B N cis
7126 1 1125 1130 1129 1134 # B N B N trans
7127 1 1125 1130 1131 1132 # B N B N trans
7128 2 1125 1130 1131 1128 # B N B N cis
7129 2 1130 1125 1126 1127 # B N B N cis
7130 2 1126 1127 1128 1131 # B N B N cis
7131 1 1126 1127 1128 1245 # B N B N trans
7132 2 1127 1128 1131 1130 # B N B N cis
7133 1 1127 1128 1131 1132 # B N B N trans
7134 1 1127 1128 1245 1250 # B N B N trans
7135 2 1127 1128 1245 1246 # B N B N cis
7136 1 1128 1131 1130 1129 # B N B N trans
7137 1 1128 1131 1132 1135 # B N B N trans
7138 2 1128 1131 1132 1249 # B N B N cis
7139 2 1131 1128 1245 1250 # B N B N cis
7140 1 1131 1128 1245 1246 # B N B N trans
7141 2 1128 1245 1250 1249 # B N B N cis
7142 1 1128 1245 1250 1251 # B N B N trans
7143 2 1128 1245 1246 1241 # B N B N cis
7144 1 1128 1245 1246 1247 # B N B N trans
7145 1 1245 1128 1131 1130 # B N B N trans
7146 2 1245 1128 1131 1132 # B N B N cis
7147 2 1129 1130 1131 1132 # B N B N cis
7148 1 1130 1129 1134 1133 # B N B N trans
7149 2 1130 1129 1134 1135 # B N B N cis
7150 1 1129 1134 1133 1138 # B N B N trans
7151 1 1129 1134 1135 1136 # B N B N trans
7152 2 1129 1134 1135 1132 # B N B N cis
7153 2 1134 1129 1130 1131 # B N B N cis
7154 2 1130 1131 1132 1135 # B N B N cis
7155 1 1130 1131 1132 1249 # B N B N trans
7156 2 1131 1132 1135 1134 # B N B N cis
7157 1 1131 1132 1135 1136 # B N B N trans
7158 1 1131 1132 1249 1254 # B N B N trans
7159 2 1131 1132 1249 1250 # B N B N cis
7160 1 1132 1135 1134 1133 # B N B N trans
7161 1 1132 1135 1136 1139 # B N B N trans
7162 2 1132 1135 1136 1253 # B N B N cis
7163 2 1135 1132 1249 1254 # B N B N cis
7164 1 1135 1132 1249 1250 # B N B N trans
7165 2 1132 1249 1254 1253 # B N B N cis
7166 1 1132 1249 1254 1255 # B N B N trans
7167 2 1132 1249 1250 1245 # B N B N cis
7168 1 1132 1249 1250 1251 # B N B N trans
7169 1 1249 1132 1135 1134 # B N B N trans
7170 2 1249 1132 1135 1136 # B N B N cis
7171 2 1133 1134 1135 1136 # B N B N cis
7172 1 1134 1133 1138 1137 # B N B N trans
7173 2 1134 1133 1138 1139 # B N B N cis
7174 1 1133 1138 1137 1142 # B N B N trans
7175 1 1133 1138 1139 1140 # B N B N trans
7176 2 1133 1138 1139 1136 # B N B N cis
7177 2 1138 1133 1134 1135 # B N B N cis
7178 2 1134 1135 1136 1139 # B N B N cis
7179 1 1134 1135 1136 1253 # B N B N trans
7180 2 1135 1136 1139 1138 # B N B N cis
7181 1 1135 1136 1139 1140 # B N B N trans
7182 1 1135 1136 1253 1258 # B N B N trans
7183 2 1135 1136 1253 1254 # B N B N cis
7184 1 1136 1139 1138 1137 # B N B N trans
7185 1 1136 1139 1140 1143 # B N B N trans
7186 2 1136 1139 1140 1257 # B N B N cis
7187 2 1139 1136 1253 1258 # B N B N cis
7188 1 1139 1136 1253 1254 # B N B N trans
7189 2 1136 1253 1258 1257 # B N B N cis
7190 1 1136 1253 1258 1259 # B N B N trans
7191 2 1136 1253 1254 1249 # B N B N cis
7192 1 1136 1253 1254 1255 # B N B N trans
7193 1 1253 1136 1139 1138 # B N B N trans
7194 2 1253 1136 1139 1140 # B N B N cis
7195 2 1137 1138 1139 1140 # B N B N cis
7196 1 1138 1137 1142 1141 # B N B N trans
7197 2 1138 1137 1142 1143 # B N B N cis
7198 1 1137 1142 1141 1146 # B N B N trans
7199 1 1137 1142 1143 1144 # B N B N trans
7200 2 1137 1142 1143 1140 # B N B N cis
7201 2 1142 1137 1138 1139 # B N B N cis
7202 2 1138 1139 1140 1143 # B N B N cis
7203 1 1138 1139 1140 1257 # B N B N trans
7204 2 1139 1140 1143 1142 # B N B N cis
7205 1 1139 1140 1143 1144 # B N B N trans
7206 1 1139 1140 1257 1262 # B N B N trans
7207 2 1139 1140 1257 1258 # B N B N cis
7208 1 1140 1143 1142 1141 # B N B N trans
7209 1 1140 1143 1144 1147 # B N B N trans
7210 2 1140 1143 1144 1261 # B N B N cis
7211 2 1143 1140 1257 1262 # B N B N cis
7212 1 1143 1140 1257 1258 # B N B N trans
7213 2 1140 1257 1262 1261 # B N B N cis
7214 1 1140 1257 1262 1263 # B N B N trans
7215 2 1140 1257 1258 1253 # B N B N cis
7216 1 1140 1257 1258 1259 # B N B N trans
7217 1 1257 1140 1143 1142 # B N B N trans
7218 2 1257 1140 1143 1144 # B N B N cis
7219 2 1141 1142 1143 1144 # B N B N cis
7220 1 1142 1141 1146 1145 # B N B N trans
7221 2 1142 1141 1146 1147 # B N B N cis
7222 1 1141 1146 1145 1150 # B N B N trans
7223 1 1141 1146 1147 1148 # B N B N trans
7224 2 1141 1146 1147 1144 # B N B N cis
7225 2 1146 1141 1142 1143 # B N B N cis
7226 2 1142 1143 1144 1147 # B N B N cis
7227 1 1142 1143 1144 1261 # B N B N trans
7228 2 1143 1144 1147 1146 # B N B N cis
7229 1 1143 1144 1147 1148 # B N B N trans
7230 1 1143 1144 1261 1266 # B N B N trans
7231 2 1143 1144 1261 1262 # B N B N cis
7232 1 1144 1147 1146 1145 # B N B N trans
7233 1 1144 1147 1148 1151 # B N B N trans
7234 2 1144 1147 1148 1265 # B N B N cis
7235 2 1147 1144 1261 1266 # B N B N cis
7236 1 1147 1144 1261 1262 # B N B N trans
7237 2 1144 1261 1266 1265 # B N B N cis
7238 1 1144 1261 1266 1267 # B N B N trans
7239 2 1144 1261 1262 1257 # B N B N cis
7240 1 1144 1261 1262 1263 # B N B N trans
7241 1 1261 1144 1147 1146 # B N B N trans
7242 2 1261 1144 1147 1148 # B N B N cis
7243 2 1145 1146 1147 1148 # B N B N cis
7244 1 1146 1145 1150 1149 # B N B N trans
7245 2 1146 1145 1150 1151 # B N B N cis
7246 1 1145 1150 1149 1154 # B N B N trans
7247 1 1145 1150 1151 1152 # B N B N trans
7248 2 1145 1150 1151 1148 # B N B N cis
7249 2 1150 1145 1146 1147 # B N B N cis
7250 2 1146 1147 1148 1151 # B N B N cis
7251 1 1146 1147 1148 1265 # B N B N trans
7252 2 1147 1148 1151 1150 # B N B N cis
7253 1 1147 1148 1151 1152 # B N B N trans
7254 1 1147 1148 1265 1270 # B N B N trans
7255 2 1147 1148 1265 1266 # B N B N cis
7256 1 1148 1151 1150 1149 # B N B N trans
7257 1 1148 1151 1152 1155 # B N B N trans
7258 2 1148 1151 1152 1269 # B N B N cis
7259 2 1151 1148 1265 1270 # B N B N cis
7260 1 1151 1148 1265 1266 # B N B N trans
7261 2 1148 1265 1270 1269 # B N B N cis
7262 1 1148 1265 1270 1271 # B N B N trans
7263 2 1148 1265 1266 1261 # B N B N cis
7264 1 1148 1265 1266 1267 # B N B N trans
7265 1 1265 1148 1151 1150 # B N B N trans
7266 2 1265 1148 1151 1152 # B N B N cis
7267 2 1149 1150 1151 1152 # B N B N cis
7268 1 1150 1149 1154 1153 # B N B N trans
7269 2 1150 1149 1154 1155 # B N B N cis
7270 1 1149 1154 1153 1158 # B N B N trans
7271 1 1149 1154 1155 1156 # B N B N trans
7272 2 1149 1154 1155 1152 # B N B N cis
7273 2 1154 1149 1150 1151 # B N B N cis
7274 2 1150 1151 1152 1155 # B N B N cis
7275 1 1150 1151 1152 1269 # B N B N trans
7276 2 1151 1152 1155 1154 # B N B N cis
7277 1 1151 1152 1155 1156 # B N B N trans
7278 1 1151 1152 1269 1274 # B N B N trans
7279 2 1151 1152 1269 1270 # B N B N cis
7280 1 1152 1155 1154 1153 # B N B N trans
7281 1 1152 1155 1156 1159 # B N B N trans
7282 2 1152 1155 1156 1273 # B N B N cis
7283 2 1155 1152 1269 1274 # B N B N cis
7284 1 1155 1152 1269 1270 # B N B N trans
7285 2 1152 1269 1274 1273 # B N B N cis
7286 1 1152 1269 1274 1275 # B N B N trans
7287 2 1152 1269 1270 1265 # B N B N cis
7288 1 1152 1269 1270 1271 # B N B N trans
7289 1 1269 1152 1155 1154 # B N B N trans
7290 2 1269 1152 1155 1156 # B N B N cis
7291 2 1153 1154 1155 1156 # B N B N cis
7292 1 1154 1153 1158 1157 # B N B N trans
7293 2 1154 1153 1158 1159 # B N B N cis
7294 1 1153 1158 1157 1162 # B N B N trans
7295 1 1153 1158 1159 1160 # B N B N trans
7296 2 1153 1158 1159 1156 # B N B N cis
7297 2 1158 1153 1154 1155 # B N B N cis
7298 2 1154 1155 1156 1159 # B N B N cis
7299 1 1154 1155 1156 1273 # B N B N trans
7300 2 1155 1156 1159 1158 # B N B N cis
7301 1 1155 1156 1159 1160 # B N B N trans
7302 1 1155 1156 1273 1278 # B N B N trans
7303 2 1155 1156 1273 1274 # B N B N cis
7304 1 1156 1159 1158 1157 # B N B N trans
7305 1 1156 1159 1160 1163 # B N B N trans
7306 2 1156 1159 1160 1277 # B N B N cis
7307 2 1159 1156 1273 1278 # B N B N cis
7308 1 1159 1156 1273 1274 # B N B N trans
7309 2 1156 1273 1278 1277 # B N B N cis
7310 1 1156 1273 1278 1279 # B N B N trans
7311 2 1156 1273 1274 1269 # B N B N cis
7312 1 1156 1273 1274 1275 # B N B N trans
7313 1 1273 1156 1159 1158 # B N B N trans
7314 2 1273 1156 1159 1160 # B N B N cis
7315 2 1157 1158 1159 1160 # B N B N cis
7316 1 1158 1157 1162 1161 # B N B N trans
7317 2 1158 1157 1162 1163 # B N B N cis
7318 1 1157 1162 1161 1166 # B N B N trans
7319 1 1157 1162 1163 1164 # B N B N trans
7320 2 1157 1162 1163 1160 # B N B N cis
7321 2 1162 1157 1158 1159 # B N B N cis
7322 2 1158 1159 1160 1163 # B N B N cis
7323 1 1158 1159 1160 1277 # B N B N trans
7324 2 1159 1160 1163 1162 # B N B N cis
7325 1 1159 1160 1163 1164 # B N B N trans
7326 1 1159 1160 1277 1282 # B N B N trans
7327 2 1159 1160 1277 1278 # B N B N cis
7328 1 1160 1163 1162 1161 # B N B N trans
7329 1 1160 1163 1164 1167 # B N B N trans
7330 2 1160 1163 1164 1281 # B N B N cis
7331 2 1163 1160 1277 1282 # B N B N cis
7332 1 1163 1160 1277 1278 # B N B N trans
7333 2 1160 1277 1282 1281 # B N B N cis
7334 1 1160 1277 1282 1283 # B N B N trans
7335 2 1160 1277 1278 1273 # B N B N cis
7336 1 1160 1277 1278 1279 # B N B N trans
7337 1 1277 1160 1163 1162 # B N B N trans
7338 2 1277 1160 1163 1164 # B N B N cis
7339 2 1161 1162 1163 1164 # B N B N cis
7340 1 1162 1161 1166 1165 # B N B N trans
7341 2 1162 1161 1166 1167 # B N B N cis
7342 1 1161 1166 1165 1170 # B N B N trans
7343 1 1161 1166 1167 1168 # B N B N trans
7344 2 1161 1166 1167 1164 # B N B N cis
7345 2 1166 1161 1162 1163 # B N B N cis
7346 2 1162 1163 1164 1167 # B N B N cis
7347 1 1162 1163 1164 1281 # B N B N trans
7348 2 1163 1164 1167 1166 # B N B N cis
7349 1 1163 1164 1167 1168 # B N B N trans
7350 1 1163 1164 1281 1286 # B N B N trans
7351 2 1163 1164 1281 1282 # B N B N cis
7352 1 1164 1167 1166 1165 # B N B N trans
7353 1 1164 1167 1168 1171 # B N B N trans
7354 2 1164 1167 1168 1285 # B N B N cis
7355 2 1167 1164 1281 1286 # B N B N cis
7356 1 1167 1164 1281 1282 # B N B N trans
7357 2 1164 1281 1286 1285 # B N B N cis
7358 1 1164 1281 1286 1287 # B N B N trans
7359 2 1164 1281 1282 1277 # B N B N cis
7360 1 1164 1281 1282 1283 # B N B N trans
7361 1 1281 1164 1167 1166 # B N B N trans
7362 2 1281 1164 1167 1168 # B N B N cis
7363 2 1165 1166 1167 1168 # B N B N cis
7364 1 1166 1165 1170 1169 # B N B N trans
7365 2 1166 1165 1170 1171 # B N B N cis
7366 1 1165 1170 1169 1174 # B N B N trans
7367 1 1165 1170 1171 1172 # B N B N trans
7368 2 1165 1170 1171 1168 # B N B N cis
7369 2 1170 1165 1166 1167 # B N B N cis
7370 2 1166 1167 1168 1171 # B N B N cis
7371 1 1166 1167 1168 1285 # B N B N trans
7372 2 1167 1168 1171 1170 # B N B N cis
7373 1 1167 1168 1171 1172 # B N B N trans
7374 1 1167 1168 1285 1290 # B N B N trans
7375 2 1167 1168 1285 1286 # B N B N cis
7376 1 1168 1171 1170 1169 # B N B N trans
7377 1 1168 1171 1172 1175 # B N B N trans
7378 2 1168 1171 1172 1289 # B N B N cis
7379 2 1171 1168 1285 1290 # B N B N cis
7380 1 1171 1168 1285 1286 # B N B N trans
7381 2 1168 1285 1290 1289 # B N B N cis
7382 1 1168 1285 1290 1291 # B N B N trans
7383 2 1168 1285 1286 1281 # B N B N cis
7384 1 1168 1285 1286 1287 # B N B N trans
7385 1 1285 1168 1171 1170 # B N B N trans
7386 2 1285 1168 1171 1172 # B N B N cis
7387 2 1169 1170 1171 1172 # B N B N cis
7388 1 1170 1169 1174 1173 # B N B N trans
7389 2 1170 1169 1174 1175 # B N B N cis
7390 1 1169 1174 1173 1178 # B N B N trans
7391 1 1169 1174 1175 1176 # B N B N trans
7392 2 1169 1174 1175 1172 # B N B N cis
7393 2 1174 1169 1170 1171 # B N B N cis
7394 2 1170 1171 1172 1175 # B N B N cis
7395 1 1170 1171 1172 1289 # B N B N trans
7396 2 1171 1172 1175 1174 # B N B N cis
7397 1 1171 1172 1175 1176 # B N B N trans
7398 1 1171 1172 1289 1294 # B N B N trans
7399 2 1171 1172 1289 1290 # B N B N cis
7400 1 1172 1175 1174 1173 # B N B N trans
7401 1 1172 1175 1176 1179 # B N B N trans
7402 2 1172 1175 1176 1293 # B N B N cis
7403 2 1175 1172 1289 1294 # B N B N cis
7404 1 1175 1172 1289 1290 # B N B N trans
7405 2 1172 1289 1294 1293 # B N B N cis
7406 1 1172 1289 1294 1295 # B N B N trans
7407 2 1172 1289 1290 1285 # B N B N cis
7408 1 1172 1289 1290 1291 # B N B N trans
7409 1 1289 1172 1175 1174 # B N B N trans
7410 2 1289 1172 1175 1176 # B N B N cis
7411 2 1173 1174 1175 1176 # B N B N cis
7412 1 1174 1173 1178 1177 # B N B N trans
7413 2 1174 1173 1178 1179 # B N B N cis
7414 1 1173 1178 1177 1182 # B N B N trans
7415 1 1173 1178 1179 1180 # B N B N trans
7416 2 1173 1178 1179 1176 # B N B N cis
7417 2 1178 1173 1174 1175 # B N B N cis
7418 2 1174 1175 1176 1179 # B N B N cis
7419 1 1174 1175 1176 1293 # B N B N trans
7420 2 1175 1176 1179 1178 # B N B N cis
7421 1 1175 1176 1179 1180 # B N B N trans
7422 1 1175 1176 1293 1298 # B N B N trans
7423 2 1175 1176 1293 1294 # B N B N cis
7424 1 1176 1179 1178 1177 # B N B N trans
7425 1 1176 1179 1180 1183 # B N B N trans
7426 2 1176 1179 1180 1297 # B N B N cis
7427 2 1179 1176 1293 1298 # B N B N cis
7428 1 1179 1176 1293 1294 # B N B N trans
7429 2 1176 1293 1298 1297 # B N B N cis
7430 1 1176 1293 1298 1299 # B N B N trans
7431 2 1176 1293 1294 1289 # B N B N cis
7432 1 1176 1293 1294 1295 # B N B N trans
7433 1 1293 1176 1179 1178 # B N B N trans
7434 2 1293 1176 1179 1180 # B N B N cis
7435 2 1177 1178 1179 1180 # B N B N cis
7436 1 1178 1177 1182 1181 # B N B N trans
7437 2 1178 1177 1182 1183 # B N B N cis
7438 1 1177 1182 1181 1186 # B N B N trans
7439 1 1177 1182 1183 1184 # B N B N trans
7440 2 1177 1182 1183 1180 # B N B N cis
7441 2 1182 1177 1178 1179 # B N B N cis
7442 2 1178 1179 1180 1183 # B N B N cis
7443 1 1178 1179 1180 1297 # B N B N trans
7444 2 1179 1180 1183 1182 # B N B N cis
7445 1 1179 1180 1183 1184 # B N B N trans
7446 1 1179 1180 1297 1302 # B N B N trans
7447 2 1179 1180 1297 1298 # B N B N cis
7448 1 1180 1183 1182 1181 # B N B N trans
7449 1 1180 1183 1184 1187 # B N B N trans
7450 2 1180 1183 1184 1301 # B N B N cis
7451 2 1183 1180 1297 1302 # B N B N cis
7452 1 1183 1180 1297 1298 # B N B N trans
7453 2 1180 1297 1302 1301 # B N B N cis
7454 1 1180 1297 1302 1303 # B N B N trans
7455 2 1180 1297 1298 1293 # B N B N cis
7456 1 1180 1297 1298 1299 # B N B N trans
7457 1 1297 1180 1183 1182 # B N B N trans
7458 2 1297 1180 1183 1184 # B N B N cis
7459 2 1181 1182 1183 1184 # B N B N cis
7460 1 1182 1181 1186 1185 # B N B N trans
7461 2 1182 1181 1186 1187 # B N B N cis
7462 1 1181 1186 1185 1190 # B N B N trans
7463 1 1181 1186 1187 1188 # B N B N trans
7464 2 1181 1186 1187 1184 # B N B N cis
7465 2 1186 1181 1182 1183 # B N B N cis
7466 2 1182 1183 1184 1187 # B N B N cis
7467 1 1182 1183 1184 1301 # B N B N trans
7468 2 1183 1184 1187 1186 # B N B N cis
7469 1 1183 1184 1187 1188 # B N B N trans
7470 1 1183 1184 1301 1306 # B N B N trans
7471 2 1183 1184 1301 1302 # B N B N cis
7472 1 1184 1187 1186 1185 # B N B N trans
7473 1 1184 1187 1188 1191 # B N B N trans
7474 2 1184 1187 1188 1305 # B N B N cis
7475 2 1187 1184 1301 1306 # B N B N cis
7476 1 1187 1184 1301 1302 # B N B N trans
7477 2 1184 1301 1306 1305 # B N B N cis
7478 1 1184 1301 1306 1307 # B N B N trans
7479 2 1184 1301 1302 1297 # B N B N cis
7480 1 1184 1301 1302 1303 # B N B N trans
7481 1 1301 1184 1187 1186 # B N B N trans
7482 2 1301 1184 1187 1188 # B N B N cis
7483 2 1185 1186 1187 1188 # B N B N cis
7484 1 1186 1185 1190 1189 # B N B N trans
7485 2 1186 1185 1190 1191 # B N B N cis
7486 1 1185 1190 1189 1194 # B N B N trans
7487 1 1185 1190 1191 1192 # B N B N trans
7488 2 1185 1190 1191 1188 # B N B N cis
7489 2 1190 1185 1186 1187 # B N B N cis
7490 2 1186 1187 1188 1191 # B N B N cis
7491 1 1186 1187 1188 1305 # B N B N trans
7492 2 1187 1188 1191 1190 # B N B N cis
7493 1 1187 1188 1191 1192 # B N B N trans
7494 1 1187 1188 1305 1310 # B N B N trans
7495 2 1187 1188 1305 1306 # B N B N cis
7496 1 1188 1191 1190 1189 # B N B N trans
7497 1 1188 1191 1192 1195 # B N B N trans
7498 2 1188 1191 1192 1309 # B N B N cis
7499 2 1191 1188 1305 1310 # B N B N cis
7500 1 1191 1188 1305 1306 # B N B N trans
7501 2 1188 1305 1310 1309 # B N B N cis
7502 1 1188 1305 1310 1311 # B N B N trans
7503 2 1188 1305 1306 1301 # B N B N cis
7504 1 1188 1305 1306 1307 # B N B N trans
7505 1 1305 1188 1191 1190 # B N B N trans
7506 2 1305 1188 1191 1192 # B N B N cis
7507 2 1189 1190 1191 1192 # B N B N cis
7508 1 1190 1189 1194 1193 # B N B N trans
7509 2 1190 1189 1194 1195 # B N B N cis
7510 1 1189 1194 1193 1198 # B N B N trans
7511 1 1189 1194 1195 1196 # B N B N trans
7512 2 1189 1194 1195 1192 # B N B N cis
7513 2 1194 1189 1190 1191 # B N B N cis
7514 2 1190 1191 1192 1195 # B N B N cis
7515 1 1190 1191 1192 1309 # B N B N trans
7516 2 1191 1192 1195 1194 # B N B N cis
7517 1 1191 1192 1195 1196 # B N B N trans
7518 1 1191 1192 1309 1314 # B N B N trans
7519 2 1191 1192 1309 1310 # B N B N cis
7520 1 1192 1195 1194 1193 # B N B N trans
7521 1 1192 1195 1196 1199 # B N B N trans
7522 2 1192 1195 1196 1313 # B N B N cis
7523 2 1195 1192 1309 1314 # B N B N cis
7524 1 1195 1192 1309 1310 # B N B N trans
7525 2 1192 1309 1314 1313 # B N B N cis
7526 1 1192 1309 1314 1315 # B N B N trans
7527 2 1192 1309 1310 1305 # B N B N cis
7528 1 1192 1309 1310 1311 # B N B N trans
7529 1 1309 1192 1195 1194 # B N B N trans
7530 2 1309 1192 1195 1196 # B N B N cis
7531 2 1193 1194 1195 1196 # B N B N cis
7532 1 1194 1193 1198 1197 # B N B N trans
7533 2 1194 1193 1198 1199 # B N B N cis
7534 1 1193 1198 1199 1200 # B N B N trans
7535 2 1193 1198 1199 1196 # B N B N cis
7536 2 1198 1193 1194 1195 # B N B N cis
7537 2 1194 1195 1196 1199 # B N B N cis
7538 1 1194 1195 1196 1313 # B N B N trans
7539 2 1195 1196 1199 1198 # B N B N cis
7540 1 1195 1196 1199 1200 # B N B N trans
7541 1 1195 1196 1313 1318 # B N B N trans
7542 2 1195 1196 1313 1314 # B N B N cis
7543 1 1196 1199 1198 1197 # B N B N trans
7544 2 1196 1199 1200 1317 # B N B N cis
7545 2 1199 1196 1313 1318 # B N B N cis
7546 1 1199 1196 1313 1314 # B N B N trans
7547 2 1196 1313 1318 1317 # B N B N cis
7548 1 1196 1313 1318 1319 # B N B N trans
7549 2 1196 1313 1314 1309 # B N B N cis
7550 1 1196 1313 1314 1315 # B N B N trans
7551 1 1313 1196 1199 1198 # B N B N trans
7552 2 1313 1196 1199 1200 # B N B N cis
7553 2 1197 1198 1199 1200 # B N B N cis
7554 1 1198 1199 1200 1317 # B N B N trans
7555 1 1199 1200 1317 1202 # B N B N trans
7556 2 1199 1200 1317 1318 # B N B N cis
7557 2 1200 1317 1202 1201 # B N B N cis
7558 1 1200 1317 1202 1203 # B N B N trans
7559 2 1200 1317 1318 1313 # B N B N cis
7560 1 1200 1317 1318 1319 # B N B N trans
7561 1 1201 1206 1205 1210 # B N B N trans
7562 2 1201 1206 1207 1204 # B N B N cis
7563 1 1201 1206 1207 1208 # B N B N trans
7564 1 1206 1201 1202 1317 # B N B N trans
7565 2 1206 1201 1202 1203 # B N B N cis
7566 1 1201 1202 1317 1318 # B N B N trans
7567 2 1201 1202 1203 1204 # B N B N cis
7568 1 1201 1202 1203 1320 # B N B N trans
7569 1 1202 1201 1206 1205 # B N B N trans
7570 2 1202 1201 1206 1207 # B N B N cis
7571 1 1202 1317 1318 1313 # B N B N trans
7572 2 1202 1317 1318 1319 # B N B N cis
7573 1 1317 1202 1203 1204 # B N B N trans
7574 2 1317 1202 1203 1320 # B N B N cis
7575 2 1202 1203 1204 1207 # B N B N cis
7576 1 1202 1203 1204 1321 # B N B N trans
7577 2 1202 1203 1320 1319 # B N B N cis
7578 1 1202 1203 1320 1437 # B N B N trans
7579 2 1203 1202 1317 1318 # B N B N cis
7580 2 1203 1204 1207 1206 # B N B N cis
7581 1 1203 1204 1207 1208 # B N B N trans
7582 1 1203 1204 1321 1326 # B N B N trans
7583 2 1203 1204 1321 1322 # B N B N cis
7584 1 1204 1203 1320 1319 # B N B N trans
7585 2 1204 1203 1320 1437 # B N B N cis
7586 2 1203 1320 1319 1318 # B N B N cis
7587 1 1203 1320 1319 1316 # B N B N trans
7588 2 1203 1320 1437 1322 # B N B N cis
7589 1 1203 1320 1437 1438 # B N B N trans
7590 1 1320 1203 1204 1207 # B N B N trans
7591 2 1320 1203 1204 1321 # B N B N cis
7592 1 1204 1207 1206 1205 # B N B N trans
7593 1 1204 1207 1208 1211 # B N B N trans
7594 2 1204 1207 1208 1325 # B N B N cis
7595 2 1207 1204 1321 1326 # B N B N cis
7596 1 1207 1204 1321 1322 # B N B N trans
7597 2 1204 1321 1326 1325 # B N B N cis
7598 1 1204 1321 1326 1327 # B N B N trans
7599 2 1204 1321 1322 1437 # B N B N cis
7600 1 1204 1321 1322 1323 # B N B N trans
7601 1 1321 1204 1207 1206 # B N B N trans
7602 2 1321 1204 1207 1208 # B N B N cis
7603 1 1205 1210 1209 1214 # B N B N trans
7604 2 1205 1210 1211 1208 # B N B N cis
7605 1 1205 1210 1211 1212 # B N B N trans
7606 2 1210 1205 1206 1207 # B N B N cis
7607 2 1205 1206 1207 1208 # B N B N cis
7608 1 1206 1205 1210 1209 # B N B N trans
7609 2 1206 1205 1210 1211 # B N B N cis
7610 2 1206 1207 1208 1211 # B N B N cis
7611 1 1206 1207 1208 1325 # B N B N trans
7612 2 1207 1208 1211 1210 # B N B N cis
7613 1 1207 1208 1211 1212 # B N B N trans
7614 1 1207 1208 1325 1330 # B N B N trans
7615 2 1207 1208 1325 1326 # B N B N cis
7616 1 1208 1211 1210 1209 # B N B N trans
7617 1 1208 1211 1212 1215 # B N B N trans
7618 2 1208 1211 1212 1329 # B N B N cis
7619 2 1211 1208 1325 1330 # B N B N cis
7620 1 1211 1208 1325 1326 # B N B N trans
7621 2 1208 1325 1330 1329 # B N B N cis
7622 1 1208 1325 1330 1331 # B N B N trans
7623 2 1208 1325 1326 1321 # B N B N cis
7624 1 1208 1325 1326 1327 # B N B N trans
7625 1 1325 1208 1211 1210 # B N B N trans
7626 2 1325 1208 1211 1212 # B N B N cis
7627 1 1209 1214 1213 1218 # B N B N trans
7628 2 1209 1214 1215 1212 # B N B N cis
7629 1 1209 1214 1215 1216 # B N B N trans
7630 2 1214 1209 1210 1211 # B N B N cis
7631 2 1209 1210 1211 1212 # B N B N cis
7632 1 1210 1209 1214 1213 # B N B N trans
7633 2 1210 1209 1214 1215 # B N B N cis
7634 2 1210 1211 1212 1215 # B N B N cis
7635 1 1210 1211 1212 1329 # B N B N trans
7636 2 1211 1212 1215 1214 # B N B N cis
7637 1 1211 1212 1215 1216 # B N B N trans
7638 1 1211 1212 1329 1334 # B N B N trans
7639 2 1211 1212 1329 1330 # B N B N cis
7640 1 1212 1215 1214 1213 # B N B N trans
7641 1 1212 1215 1216 1219 # B N B N trans
7642 2 1212 1215 1216 1333 # B N B N cis
7643 2 1215 1212 1329 1334 # B N B N cis
7644 1 1215 1212 1329 1330 # B N B N trans
7645 2 1212 1329 1334 1333 # B N B N cis
7646 1 1212 1329 1334 1335 # B N B N trans
7647 2 1212 1329 1330 1325 # B N B N cis
7648 1 1212 1329 1330 1331 # B N B N trans
7649 1 1329 1212 1215 1214 # B N B N trans
7650 2 1329 1212 1215 1216 # B N B N cis
7651 1 1213 1218 1217 1222 # B N B N trans
7652 2 1213 1218 1219 1216 # B N B N cis
7653 1 1213 1218 1219 1220 # B N B N trans
7654 2 1218 1213 1214 1215 # B N B N cis
7655 2 1213 1214 1215 1216 # B N B N cis
7656 1 1214 1213 1218 1217 # B N B N trans
7657 2 1214 1213 1218 1219 # B N B N cis
7658 2 1214 1215 1216 1219 # B N B N cis
7659 1 1214 1215 1216 1333 # B N B N trans
7660 2 1215 1216 1219 1218 # B N B N cis
7661 1 1215 1216 1219 1220 # B N B N trans
7662 1 1215 1216 1333 1338 # B N B N trans
7663 2 1215 1216 1333 1334 # B N B N cis
7664 1 1216 1219 1218 1217 # B N B N trans
7665 1 1216 1219 1220 1223 # B N B N trans
7666 2 1216 1219 1220 1337 # B N B N cis
7667 2 1219 1216 1333 1338 # B N B N cis
7668 1 1219 1216 1333 1334 # B N B N trans
7669 2 1216 1333 1338 1337 # B N B N cis
7670 1 1216 1333 1338 1339 # B N B N trans
7671 2 1216 1333 1334 1329 # B N B N cis
7672 1 1216 1333 1334 1335 # B N B N trans
7673 1 1333 1216 1219 1218 # B N B N trans
7674 2 1333 1216 1219 1220 # B N B N cis
7675 1 1217 1222 1221 1226 # B N B N trans
7676 2 1217 1222 1223 1220 # B N B N cis
7677 1 1217 1222 1223 1224 # B N B N trans
7678 2 1222 1217 1218 1219 # B N B N cis
7679 2 1217 1218 1219 1220 # B N B N cis
7680 1 1218 1217 1222 1221 # B N B N trans
7681 2 1218 1217 1222 1223 # B N B N cis
7682 2 1218 1219 1220 1223 # B N B N cis
7683 1 1218 1219 1220 1337 # B N B N trans
7684 2 1219 1220 1223 1222 # B N B N cis
7685 1 1219 1220 1223 1224 # B N B N trans
7686 1 1219 1220 1337 1342 # B N B N trans
7687 2 1219 1220 1337 1338 # B N B N cis
7688 1 1220 1223 1222 1221 # B N B N trans
7689 1 1220 1223 1224 1227 # B N B N trans
7690 2 1220 1223 1224 1341 # B N B N cis
7691 2 1223 1220 1337 1342 # B N B N cis
7692 1 1223 1220 1337 1338 # B N B N trans
7693 2 1220 1337 1342 1341 # B N B N cis
7694 1 1220 1337 1342 1343 # B N B N trans
7695 2 1220 1337 1338 1333 # B N B N cis
7696 1 1220 1337 1338 1339 # B N B N trans
7697 1 1337 1220 1223 1222 # B N B N trans
7698 2 1337 1220 1223 1224 # B N B N cis
7699 1 1221 1226 1225 1230 # B N B N trans
7700 2 1221 1226 1227 1224 # B N B N cis
7701 1 1221 1226 1227 1228 # B N B N trans
7702 2 1226 1221 1222 1223 # B N B N cis
7703 2 1221 1222 1223 1224 # B N B N cis
7704 1 1222 1221 1226 1225 # B N B N trans
7705 2 1222 1221 1226 1227 # B N B N cis
7706 2 1222 1223 1224 1227 # B N B N cis
7707 1 1222 1223 1224 1341 # B N B N trans
7708 2 1223 1224 1227 1226 # B N B N cis
7709 1 1223 1224 1227 1228 # B N B N trans
7710 1 1223 1224 1341 1346 # B N B N trans
7711 2 1223 1224 1341 1342 # B N B N cis
7712 1 1224 1227 1226 1225 # B N B N trans
7713 1 1224 1227 1228 1231 # B N B N trans
7714 2 1224 1227 1228 1345 # B N B N cis
7715 2 1227 1224 1341 1346 # B N B N cis
7716 1 1227 1224 1341 1342 # B N B N trans
7717 2 1224 1341 1346 1345 # B N B N cis
7718 1 1224 1341 1346 1347 # B N B N trans
7719 2 1224 1341 1342 1337 # B N B N cis
7720 1 1224 1341 1342 1343 # B N B N trans
7721 1 1341 1224 1227 1226 # B N B N trans
7722 2 1341 1224 1227 1228 # B N B N cis
7723 1 1225 1230 1229 1234 # B N B N trans
7724 2 1225 1230 1231 1228 # B N B N cis
7725 1 1225 1230 1231 1232 # B N B N trans
7726 2 1230 1225 1226 1227 # B N B N cis
7727 2 1225 1226 1227 1228 # B N B N cis
7728 1 1226 1225 1230 1229 # B N B N trans
7729 2 1226 1225 1230 1231 # B N B N cis
7730 2 1226 1227 1228 1231 # B N B N cis
7731 1 1226 1227 1228 1345 # B N B N trans
7732 2 1227 1228 1231 1230 # B N B N cis
7733 1 1227 1228 1231 1232 # B N B N trans
7734 1 1227 1228 1345 1350 # B N B N trans
7735 2 1227 1228 1345 1346 # B N B N cis
7736 1 1228 1231 1230 1229 # B N B N trans
7737 1 1228 1231 1232 1235 # B N B N trans
7738 2 1228 1231 1232 1349 # B N B N cis
7739 2 1231 1228 1345 1350 # B N B N cis
7740 1 1231 1228 1345 1346 # B N B N trans
7741 2 1228 1345 1350 1349 # B N B N cis
7742 1 1228 1345 1350 1351 # B N B N trans
7743 2 1228 1345 1346 1341 # B N B N cis
7744 1 1228 1345 1346 1347 # B N B N trans
7745 1 1345 1228 1231 1230 # B N B N trans
7746 2 1345 1228 1231 1232 # B N B N cis
7747 1 1229 1234 1233 1238 # B N B N trans
7748 2 1229 1234 1235 1232 # B N B N cis
7749 1 1229 1234 1235 1236 # B N B N trans
7750 2 1234 1229 1230 1231 # B N B N cis
7751 2 1229 1230 1231 1232 # B N B N cis
7752 1 1230 1229 1234 1233 # B N B N trans
7753 2 1230 1229 1234 1235 # B N B N cis
7754 2 1230 1231 1232 1235 # B N B N cis
7755 1 1230 1231 1232 1349 # B N B N trans
7756 2 1231 1232 1235 1234 # B N B N cis
7757 1 1231 1232 1235 1236 # B N B N trans
7758 1 1231 1232 1349 1354 # B N B N trans
7759 2 1231 1232 1349 1350 # B N B N cis
7760 1 1232 1235 1234 1233 # B N B N trans
7761 1 1232 1235 1236 1239 # B N B N trans
7762 2 1232 1235 1236 1353 # B N B N cis
7763 2 1235 1232 1349 1354 # B N B N cis
7764 1 1235 1232 1349 1350 # B N B N trans
7765 2 1232 1349 1354 1353 # B N B N cis
7766 1 1232 1349 1354 1355 # B N B N trans
7767 2 1232 1349 1350 1345 # B N B N cis
7768 1 1232 1349 1350 1351 # B N B N trans
7769 1 1349 1232 1235 1234 # B N B N trans
7770 2 1349 1232 1235 1236 # B N B N cis
7771 1 1233 1238 1237 1242 # B N B N trans
7772 2 1233 1238 1239 1236 # B N B N cis
7773 1 1233 1238 1239 1240 # B N B N trans
7774 2 1238 1233 1234 1235 # B N B N cis
7775 2 1233 1234 1235 1236 # B N B N cis
7776 1 1234 1233 1238 1237 # B N B N trans
7777 2 1234 1233 1238 1239 # B N B N cis
7778 2 1234 1235 1236 1239 # B N B N cis
7779 1 1234 1235 1236 1353 # B N B N trans
7780 2 1235 1236 1239 1238 # B N B N cis
7781 1 1235 1236 1239 1240 # B N B N trans
7782 1 1235 1236 1353 1358 # B N B N trans
7783 2 1235 1236 1353 1354 # B N B N cis
7784 1 1236 1239 1238 1237 # B N B N trans
7785 1 1236 1239 1240 1243 # B N B N trans
7786 2 1236 1239 1240 1357 # B N B N cis
7787 2 1239 1236 1353 1358 # B N B N cis
7788 1 1239 1236 1353 1354 # B N B N trans
7789 2 1236 1353 1358 1357 # B N B N cis
7790 1 1236 1353 1358 1359 # B N B N trans
7791 2 1236 1353 1354 1349 # B N B N cis
7792 1 1236 1353 1354 1355 # B N B N trans
7793 1 1353 1236 1239 1238 # B N B N trans
7794 2 1353 1236 1239 1240 # B N B N cis
7795 1 1237 1242 1241 1246 # B N B N trans
7796 2 1237 1242 1243 1240 # B N B N cis
7797 1 1237 1242 1243 1244 # B N B N trans
7798 2 1242 1237 1238 1239 # B N B N cis
7799 2 1237 1238 1239 1240 # B N B N cis
7800 1 1238 1237 1242 1241 # B N B N trans
7801 2 1238 1237 1242 1243 # B N B N cis
7802 2 1238 1239 1240 1243 # B N B N cis
7803 1 1238 1239 1240 1357 # B N B N trans
7804 2 1239 1240 1243 1242 # B N B N cis
7805 1 1239 1240 1243 1244 # B N B N trans
7806 1 1239 1240 1357 1362 # B N B N trans
7807 2 1239 1240 1357 1358 # B N B N cis
7808 1 1240 1243 1242 1241 # B N B N trans
7809 1 1240 1243 1244 1247 # B N B N trans
7810 2 1240 1243 1244 1361 # B N B N cis
7811 2 1243 1240 1357 1362 # B N B N cis
7812 1 1243 1240 1357 1358 # B N B N trans
7813 2 1240 1357 1362 1361 # B N B N cis
7814 1 1240 1357 1362 1363 # B N B N trans
7815 2 1240 1357 1358 1353 # B N B N cis
7816 1 1240 1357 1358 1359 # B N B N trans
7817 1 1357 1240 1243 1242 # B N B N trans
7818 2 1357 1240 1243 1244 # B N B N cis
7819 1 1241 1246 1245 1250 # B N B N trans
7820 2 1241 1246 1247 1244 # B N B N cis
7821 1 1241 1246 1247 1248 # B N B N trans
7822 2 1246 1241 1242 1243 # B N B N cis
7823 2 1241 1242 1243 1244 # B N B N cis
7824 1 1242 1241 1246 1245 # B N B N trans
7825 2 1242 1241 1246 1247 # B N B N cis
7826 2 1242 1243 1244 1247 # B N B N cis
7827 1 1242 1243 1244 1361 # B N B N trans
7828 2 1243 1244 1247 1246 # B N B N cis
7829 1 1243 1244 1247 1248 # B N B N trans
7830 1 1243 1244 1361 1366 # B N B N trans
7831 2 1243 1244 1361 1362 # B N B N cis
7832 1 1244 1247 1246 1245 # B N B N trans
7833 1 1244 1247 1248 1251 # B N B N trans
7834 2 1244 1247 1248 1365 # B N B N cis
7835 2 1247 1244 1361 1366 # B N B N cis
7836 1 1247 1244 1361 1362 # B N B N trans
7837 2 1244 1361 1366 1365 # B N B N cis
7838 1 1244 1361 1366 1367 # B N B N trans
7839 2 1244 1361 1362 1357 # B N B N cis
7840 1 1244 1361 1362 1363 # B N B N trans
7841 1 1361 1244 1247 1246 # B N B N trans
7842 2 1361 1244 1247 1248 # B N B N cis
7843 1 1245 1250 1249 1254 # B N B N trans
7844 2 1245 1250 1251 1248 # B N B N cis
7845 1 1245 1250 1251 1252 # B N B N trans
7846 2 1250 1245 1246 1247 # B N B N cis
7847 2 1245 1246 1247 1248 # B N B N cis
7848 1 1246 1245 1250 1249 # B N B N trans
7849 2 1246 1245 1250 1251 # B N B N cis
7850 2 1246 1247 1248 1251 # B N B N cis
7851 1 1246 1247 1248 1365 # B N B N trans
7852 2 1247 1248 1251 1250 # B N B N cis
7853 1 1247 1248 1251 1252 # B N B N trans
7854 1 1247 1248 1365 1370 # B N B N trans
7855 2 1247 1248 1365 1366 # B N B N cis
7856 1 1248 1251 1250 1249 # B N B N trans
7857 1 1248 1251 1252 1255 # B N B N trans
7858 2 1248 1251 1252 1369 # B N B N cis
7859 2 1251 1248 1365 1370 # B N B N cis
7860 1 1251 1248 1365 1366 # B N B N trans
7861 2 1248 1365 1370 1369 # B N B N cis
7862 1 1248 1365 1370 1371 # B N B N trans
7863 2 1248 1365 1366 1361 # B N B N cis
7864 1 1248 1365 1366 1367 # B N B N trans
7865 1 1365 1248 1251 1250 # B N B N trans
7866 2 1365 1248 1251 1252 # B N B N cis
7867 1 1249 1254 1253 1258 # B N B N trans
7868 2 1249 1254 1255 1252 # B N B N cis
7869 1 1249 1254 1255 1256 # B N B N trans
7870 2 1254 1249 1250 1251 # B N B N cis
7871 2 1249 1250 1251 1252 # B N B N cis
7872 1 1250 1249 1254 1253 # B N B N trans
7873 2 1250 1249 1254 1255 # B N B N cis
7874 2 1250 1251 1252 1255 # B N B N cis
7875 1 1250 1251 1252 1369 # B N B N trans
7876 2 1251 1252 1255 1254 # B N B N cis
7877 1 1251 1252 1255 1256 # B N B N trans
7878 1 1251 1252 1369 1374 # B N B N trans
7879 2 1251 1252 1369 1370 # B N B N cis
7880 1 1252 1255 1254 1253 # B N B N trans
7881 1 1252 1255 1256 1259 # B N B N trans
7882 2 1252 1255 1256 1373 # B N B N cis
7883 2 1255 1252 1369 1374 # B N B N cis
7884 1 1255 1252 1369 1370 # B N B N trans
7885 2 1252 1369 1374 1373 # B N B N cis
7886 1 1252 1369 1374 1375 # B N B N trans
7887 2 1252 1369 1370 1365 # B N B N cis
7888 1 1252 1369 1370 1371 # B N B N trans
7889 1 1369 1252 1255 1254 # B N B N trans
7890 2 1369 1252 1255 1256 # B N B N cis
7891 1 1253 1258 1257 1262 # B N B N trans
7892 2 1253 1258 1259 1256 # B N B N cis
7893 1 1253 1258 1259 1260 # B N B N trans
7894 2 1258 1253 1254 1255 # B N B N cis
7895 2 1253 1254 1255 1256 # B N B N cis
7896 1 1254 1253 1258 1257 # B N B N trans
7897 2 1254 1253 1258 1259 # B N B N cis
7898 2 1254 1255 1256 1259 # B N B N cis
7899 1 1254 1255 1256 1373 # B N B N trans
7900 2 1255 1256 1259 1258 # B N B N cis
7901 1 1255 1256 1259 1260 # B N B N trans
7902 1 1255 1256 1373 1378 # B N B N trans
7903 2 1255 1256 1373 1374 # B N B N cis
7904 1 1256 1259 1258 1257 # B N B N trans
7905 1 1256 1259 1260 1263 # B N B N trans
7906 2 1256 1259 1260 1377 # B N B N cis
7907 2 1259 1256 1373 1378 # B N B N cis
7908 1 1259 1256 1373 1374 # B N B N trans
7909 2 1256 1373 1378 1377 # B N B N cis
7910 1 1256 1373 1378 1379 # B N B N trans
7911 2 1256 1373 1374 1369 # B N B N cis
7912 1 1256 1373 1374 1375 # B N B N trans
7913 1 1373 1256 1259 1258 # B N B N trans
7914 2 1373 1256 1259 1260 # B N B N cis
7915 1 1257 1262 1261 1266 # B N B N trans
7916 2 1257 1262 1263 1260 # B N B N cis
7917 1 1257 1262 1263 1264 # B N B N trans
7918 2 1262 1257 1258 1259 # B N B N cis
7919 2 1257 1258 1259 1260 # B N B N cis
7920 1 1258 1257 1262 1261 # B N B N trans
7921 2 1258 1257 1262 1263 # B N B N cis
7922 2 1258 1259 1260 1263 # B N B N cis
7923 1 1258 1259 1260 1377 # B N B N trans
7924 2 1259 1260 1263 1262 # B N B N cis
7925 1 1259 1260 1263 1264 # B N B N trans
7926 1 1259 1260 1377 1382 # B N B N trans
7927 2 1259 1260 1377 1378 # B N B N cis
7928 1 1260 1263 1262 1261 # B N B N trans
7929 1 1260 1263 1264 1267 # B N B N trans
7930 2 1260 1263 1264 1381 # B N B N cis
7931 2 1263 1260 1377 1382 # B N B N cis
7932 1 1263 1260 1377 1378 # B N B N trans
7933 2 1260 1377 1382 1381 # B N B N cis
7934 1 1260 1377 1382 1383 # B N B N trans
7935 2 1260 1377 1378 1373 # B N B N cis
7936 1 1260 1377 1378 1379 # B N B N trans
7937 1 1377 1260 1263 1262 # B N B N trans
7938 2 1377 1260 1263 1264 # B N B N cis
7939 1 1261 1266 1265 1270 # B N B N trans
7940 2 1261 1266 1267 1264 # B N B N cis
7941 1 1261 1266 1267 1268 # B N B N trans
7942 2 1266 1261 1262 1263 # B N B N cis
7943 2 1261 1262 1263 1264 # B N B N cis
7944 1 1262 1261 1266 1265 # B N B N trans
7945 2 1262 1261 1266 1267 # B N B N cis
7946 2 1262 1263 1264 1267 # B N B N cis
7947 1 1262 1263 1264 1381 # B N B N trans
7948 2 1263 1264 1267 1266 # B N B N cis
7949 1 1263 1264 1267 1268 # B N B N trans
7950 1 1263 1264 1381 1386 # B N B N trans
7951 2 1263 1264 1381 1382 # B N B N cis
7952 1 1264 1267 1266 1265 # B N B N trans
7953 1 1264 1267 1268 1271 # B N B N trans
7954 2 1264 1267 1268 1385 # B N B N cis
7955 2 1267 1264 1381 1386 # B N B N cis
7956 1 1267 1264 1381 1382 # B N B N trans
7957 2 1264 1381 1386 1385 # B N B N cis
7958 1 1264 1381 1386 1387 # B N B N trans
7959 2 1264 1381 1382 1377 # B N B N cis
7960 1 1264 1381 1382 1383 # B N B N trans
7961 1 1381 1264 1267 1266 # B N B N trans
7962 2 1381 1264 1267 1268 # B N B N cis
7963 1 1265 1270 1269 1274 # B N B N trans
7964 2 1265 1270 1271 1268 # B N B N cis
7965 1 1265 1270 1271 1272 # B N B N trans
7966 2 1270 1265 1266 1267 # B N B N cis
7967 2 1265 1266 1267 1268 # B N B N cis
7968 1 1266 1265 1270 1269 # B N B N trans
7969 2 1266 1265 1270 1271 # B N B N cis
7970 2 1266 1267 1268 1271 # B N B N cis
7971 1 1266 1267 1268 1385 # B N B N trans
7972 2 1267 1268 1271 1270 # B N B N cis
7973 1 1267 1268 1271 1272 # B N B N trans
7974 1 1267 1268 1385 1390 # B N B N trans
7975 2 1267 1268 1385 1386 # B N B N cis
7976 1 1268 1271 1270 1269 # B N B N trans
7977 1 1268 1271 1272 1275 # B N B N trans
7978 2 1268 1271 1272 1389 # B N B N cis
7979 2 1271 1268 1385 1390 # B N B N cis
7980 1 1271 1268 1385 1386 # B N B N trans
7981 2 1268 1385 1390 1389 # B N B N cis
7982 1 1268 1385 1390 1391 # B N B N trans
7983 2 1268 1385 1386 1381 # B N B N cis
7984 1 1268 1385 1386 1387 # B N B N trans
7985 1 1385 1268 1271 1270 # B N B N trans
7986 2 1385 1268 1271 1272 # B N B N cis
7987 1 1269 1274 1273 1278 # B N B N trans
7988 2 1269 1274 1275 1272 # B N B N cis
7989 1 1269 1274 1275 1276 # B N B N trans
7990 2 1274 1269 1270 1271 # B N B N cis
7991 2 1269 1270 1271 1272 # B N B N cis
7992 1 1270 1269 1274 1273 # B N B N trans
7993 2 1270 1269 1274 1275 # B N B N cis
7994 2 1270 1271 1272 1275 # B N B N cis
7995 1 1270 1271 1272 1389 # B N B N trans
7996 2 1271 1272 1275 1274 # B N B N cis
7997 1 1271 1272 1275 1276 # B N B N trans
7998 1 1271 1272 1389 1394 # B N B N trans
7999 2 1271 1272 1389 1390 # B N B N cis
8000 1 1272 1275 1274 1273 # B N B N trans
8001 1 1272 1275 1276 1279 # B N B N trans
8002 2 1272 1275 1276 1393 # B N B N cis
8003 2 1275 1272 1389 1394 # B N B N cis
8004 1 1275 1272 1389 1390 # B N B N trans
8005 2 1272 1389 1394 1393 # B N B N cis
8006 1 1272 1389 1394 1395 # B N B N trans
8007 2 1272 1389 1390 1385 # B N B N cis
8008 1 1272 1389 1390 1391 # B N B N trans
8009 1 1389 1272 1275 1274 # B N B N trans
8010 2 1389 1272 1275 1276 # B N B N cis
8011 1 1273 1278 1277 1282 # B N B N trans
8012 2 1273 1278 1279 1276 # B N B N cis
8013 1 1273 1278 1279 1280 # B N B N trans
8014 2 1278 1273 1274 1275 # B N B N cis
8015 2 1273 1274 1275 1276 # B N B N cis
8016 1 1274 1273 1278 1277 # B N B N trans
8017 2 1274 1273 1278 1279 # B N B N cis
8018 2 1274 1275 1276 1279 # B N B N cis
8019 1 1274 1275 1276 1393 # B N B N trans
8020 2 1275 1276 1279 1278 # B N B N cis
8021 1 1275 1276 1279 1280 # B N B N trans
8022 1 1275 1276 1393 1398 # B N B N trans
8023 2 1275 1276 1393 1394 # B N B N cis
8024 1 1276 1279 1278 1277 # B N B N trans
8025 1 1276 1279 1280 1283 # B N B N trans
8026 2 1276 1279 1280 1397 # B N B N cis
8027 2 1279 1276 1393 1398 # B N B N cis
8028 1 1279 1276 1393 1394 # B N B N trans
8029 2 1276 1393 1398 1397 # B N B N cis
8030 1 1276 1393 1398 1399 # B N B N trans
8031 2 1276 1393 1394 1389 # B N B N cis
8032 1 1276 1393 1394 1395 # B N B N trans
8033 1 1393 1276 1279 1278 # B N B N trans
8034 2 1393 1276 1279 1280 # B N B N cis
8035 1 1277 1282 1281 1286 # B N B N trans
8036 2 1277 1282 1283 1280 # B N B N cis
8037 1 1277 1282 1283 1284 # B N B N trans
8038 2 1282 1277 1278 1279 # B N B N cis
8039 2 1277 1278 1279 1280 # B N B N cis
8040 1 1278 1277 1282 1281 # B N B N trans
8041 2 1278 1277 1282 1283 # B N B N cis
8042 2 1278 1279 1280 1283 # B N B N cis
8043 1 1278 1279 1280 1397 # B N B N trans
8044 2 1279 1280 1283 1282 # B N B N cis
8045 1 1279 1280 1283 1284 # B N B N trans
8046 1 1279 1280 1397 1402 # B N B N trans
8047 2 1279 1280 1397 1398 # B N B N cis
8048 1 1280 1283 1282 1281 # B N B N trans
8049 1 1280 1283 1284 1287 # B N B N trans
8050 2 1280 1283 1284 1401 # B N B N cis
8051 2 1283 1280 1397 1402 # B N B N cis
8052 1 1283 1280 1397 1398 # B N B N trans
8053 2 1280 1397 1402 1401 # B N B N cis
8054 1 1280 1397 1402 1403 # B N B N trans
8055 2 1280 1397 1398 1393 # B N B N cis
8056 1 1280 1397 1398 1399 # B N B N trans
8057 1 1397 1280 1283 1282 # B N B N trans
8058 2 1397 1280 1283 1284 # B N B N cis
8059 1 1281 1286 1285 1290 # B N B N trans
8060 2 1281 1286 1287 1284 # B N B N cis
8061 1 1281 1286 1287 1288 # B N B N trans
8062 2 1286 1281 1282 1283 # B N B N cis
8063 2 1281 1282 1283 1284 # B N B N cis
8064 1 1282 1281 1286 1285 # B N B N trans
8065 2 1282 1281 1286 1287 # B N B N cis
8066 2 1282 1283 1284 1287 # B N B N cis
8067 1 1282 1283 1284 1401 # B N B N trans
8068 2 1283 1284 1287 1286 # B N B N cis
8069 1 1283 1284 1287 1288 # B N B N trans
8070 1 1283 1284 1401 1406 # B N B N trans
8071 2 1283 1284 1401 1402 # B N B N cis
8072 1 1284 1287 1286 1285 # B N B N trans
8073 1 1284 1287 1288 1291 # B N B N trans
8074 2 1284 1287 1288 1405 # B N B N cis
8075 2 1287 1284 1401 1406 # B N B N cis
8076 1 1287 1284 1401 1402 # B N B N trans
8077 2 1284 1401 1406 1405 # B N B N cis
8078 1 1284 1401 1406 1407 # B N B N trans
8079 2 1284 1401 1402 1397 # B N B N cis
8080 1 1284 1401 1402 1403 # B N B N trans
8081 1 1401 1284 1287 1286 # B N B N trans
8082 2 1401 1284 1287 1288 # B N B N cis
8083 1 1285 1290 1289 1294 # B N B N trans
8084 2 1285 1290 1291 1288 # B N B N cis
8085 1 1285 1290 1291 1292 # B N B N trans
8086 2 1290 1285 1286 1287 # B N B N cis
8087 2 1285 1286 1287 1288 # B N B N cis
8088 1 1286 1285 1290 1289 # B N B N trans
8089 2 1286 1285 1290 1291 # B N B N cis
8090 2 1286 1287 1288 1291 # B N B N cis
8091 1 1286 1287 1288 1405 # B N B N trans
8092 2 1287 1288 1291 1290 # B N B N cis
8093 1 1287 1288 1291 1292 # B N B N trans
8094 1 1287 1288 1405 1410 # B N B N trans
8095 2 1287 1288 1405 1406 # B N B N cis
8096 1 1288 1291 1290 1289 # B N B N trans
8097 1 1288 1291 1292 1295 # B N B N trans
8098 2 1288 1291 1292 1409 # B N B N cis
8099 2 1291 1288 1405 1410 # B N B N cis
8100 1 1291 1288 1405 1406 # B N B N trans
8101 2 1288 1405 1410 1409 # B N B N cis
8102 1 1288 1405 1410 1411 # B N B N trans
8103 2 1288 1405 1406 1401 # B N B N cis
8104 1 1288 1405 1406 1407 # B N B N trans
8105 1 1405 1288 1291 1290 # B N B N trans
8106 2 1405 1288 1291 1292 # B N B N cis
8107 1 1289 1294 1293 1298 # B N B N trans
8108 2 1289 1294 1295 1292 # B N B N cis
8109 1 1289 1294 1295 1296 # B N B N trans
8110 2 1294 1289 1290 1291 # B N B N cis
8111 2 1289 1290 1291 1292 # B N B N cis
8112 1 1290 1289 1294 1293 # B N B N trans
8113 2 1290 1289 1294 1295 # B N B N cis
8114 2 1290 1291 1292 1295 # B N B N cis
8115 1 1290 1291 1292 1409 # B N B N trans
8116 2 1291 1292 1295 1294 # B N B N cis
8117 1 1291 1292 1295 1296 # B N B N trans
8118 1 1291 1292 1409 1414 # B N B N trans
8119 2 1291 1292 1409 1410 # B N B N cis
8120 1 1292 1295 1294 1293 # B N B N trans
8121 1 1292 1295 1296 1299 # B N B N trans
8122 2 1292 1295 1296 1413 # B N B N cis
8123 2 1295 1292 1409 1414 # B N B N cis
8124 1 1295 1292 1409 1410 # B N B N trans
8125 2 1292 1409 1414 1413 # B N B N cis
8126 1 1292 1409 1414 1415 # B N B N trans
8127 2 1292 1409 1410 1405 # B N B N cis
8128 1 1292 1409 1410 1411 # B N B N trans
8129 1 1409 1292 1295 1294 # B N B N trans
8130 2 1409 1292 1295 1296 # B N B N cis
8131 1 1293 1298 1297 1302 # B N B N trans
8132 2 1293 1298 1299 1296 # B N B N cis
8133 1 1293 1298 1299 1300 # B N B N trans
8134 2 1298 1293 1294 1295 # B N B N cis
8135 2 1293 1294 1295 1296 # B N B N cis
8136 1 1294 1293 1298 1297 # B N B N trans
8137 2 1294 1293 1298 1299 # B N B N cis
8138 2 1294 1295 1296 1299 # B N B N cis
8139 1 1294 1295 1296 1413 # B N B N trans
8140 2 1295 1296 1299 1298 # B N B N cis
8141 1 1295 1296 1299 1300 # B N B N trans
8142 1 1295 1296 1413 1418 # B N B N trans
8143 2 1295 1296 1413 1414 # B N B N cis
8144 1 1296 1299 1298 1297 # B N B N trans
8145 1 1296 1299 1300 1303 # B N B N trans
8146 2 1296 1299 1300 1417 # B N B N cis
8147 2 1299 1296 1413 1418 # B N B N cis
8148 1 1299 1296 1413 1414 # B N B N trans
8149 2 1296 1413 1418 1417 # B N B N cis
8150 1 1296 1413 1418 1419 # B N B N trans
8151 2 1296 1413 1414 1409 # B N B N cis
8152 1 1296 1413 1414 1415 # B N B N trans
8153 1 1413 1296 1299 1298 # B N B N trans
8154 2 1413 1296 1299 1300 # B N B N cis
8155 1 1297 1302 1301 1306 # B N B N trans
8156 2 1297 1302 1303 1300 # B N B N cis
8157 1 1297 1302 1303 1304 # B N B N trans
8158 2 1302 1297 1298 1299 # B N B N cis
8159 2 1297 1298 1299 1300 # B N B N cis
8160 1 1298 1297 1302 1301 # B N B N trans
8161 2 1298 1297 1302 1303 # B N B N cis
8162 2 1298 1299 1300 1303 # B N B N cis
8163 1 1298 1299 1300 1417 # B N B N trans
8164 2 1299 1300 1303 1302 # B N B N cis
8165 1 1299 1300 1303 1304 # B N B N trans
8166 1 1299 1300 1417 1422 # B N B N trans
8167 2 1299 1300 1417 1418 # B N B N cis
8168 1 1300 1303 1302 1301 # B N B N trans
8169 1 1300 1303 1304 1307 # B N B N trans
8170 2 1300 1303 1304 1421 # B N B N cis
8171 2 1303 1300 1417 1422 # B N B N cis
8172 1 1303 1300 1417 1418 # B N B N trans
8173 2 1300 1417 1422 1421 # B N B N cis
8174 1 1300 1417 1422 1423 # B N B N trans
8175 2 1300 1417 1418 1413 # B N B N cis
8176 1 1300 1417 1418 1419 # B N B N trans
8177 1 1417 1300 1303 1302 # B N B N trans
8178 2 1417 1300 1303 1304 # B N B N cis
8179 1 1301 1306 1305 1310 # B N B N trans
8180 2 1301 1306 1307 1304 # B N B N cis
8181 1 1301 1306 1307 1308 # B N B N trans
8182 2 1306 1301 1302 1303 # B N B N cis
8183 2 1301 1302 1303 1304 # B N B N cis
8184 1 1302 1301 1306 1305 # B N B N trans
8185 2 1302 1301 1306 1307 # B N B N cis
8186 2 1302 1303 1304 1307 # B N B N cis
8187 1 1302 1303 1304 1421 # B N B N trans
8188 2 1303 1304 1307 1306 # B N B N cis
8189 1 1303 1304 1307 1308 # B N B N trans
8190 1 1303 1304 1421 1426 # B N B N trans
8191 2 1303 1304 1421 1422 # B N B N cis
8192 1 1304 1307 1306 1305 # B N B N trans
8193 1 1304 1307 1308 1311 # B N B N trans
8194 2 1304 1307 1308 1425 # B N B N cis
8195 2 1307 1304 1421 1426 # B N B N cis
8196 1 1307 1304 1421 1422 # B N B N trans
8197 2 1304 1421 1426 1425 # B N B N cis
8198 1 1304 1421 1426 1427 # B N B N trans
8199 2 1304 1421 1422 1417 # B N B N cis
8200 1 1304 1421 1422 1423 # B N B N trans
8201 1 1421 1304 1307 1306 # B N B N trans
8202 2 1421 1304 1307 1308 # B N B N cis
8203 1 1305 1310 1309 1314 # B N B N trans
8204 2 1305 1310 1311 1308 # B N B N cis
8205 1 1305 1310 1311 1312 # B N B N trans
8206 2 1310 1305 1306 1307 # B N B N cis
8207 2 1305 1306 1307 1308 # B N B N cis
8208 1 1306 1305 1310 1309 # B N B N trans
8209 2 1306 1305 1310 1311 # B N B N cis
8210 2 1306 1307 1308 1311 # B N B N cis
8211 1 1306 1307 1308 1425 # B N B N trans
8212 2 1307 1308 1311 1310 # B N B N cis
8213 1 1307 1308 1311 1312 # B N B N trans
8214 1 1307 1308 1425 1430 # B N B N trans
8215 2 1307 1308 1425 1426 # B N B N cis
8216 1 1308 1311 1310 1309 # B N B N trans
8217 1 1308 1311 1312 1315 # B N B N trans
8218 2 1308 1311 1312 1429 # B N B N cis
8219 2 1311 1308 1425 1430 # B N B N cis
8220 1 1311 1308 1425 1426 # B N B N trans
8221 2 1308 1425 1430 1429 # B N B N cis
8222 1 1308 1425 1430 1431 # B N B N trans
8223 2 1308 1425 1426 1421 # B N B N cis
8224 1 1308 1425 1426 1427 # B N B N trans
8225 1 1425 1308 1311 1310 # B N B N trans
8226 2 1425 1308 1311 1312 # B N B N cis
8227 1 1309 1314 1313 1318 # B N B N trans
8228 2 1309 1314 1315 1312 # B N B N cis
8229 1 1309 1314 1315 1316 # B N B N trans
8230 2 1314 1309 1310 1311 # B N B N cis
8231 2 1309 1310 1311 1312 # B N B N cis
8232 1 1310 1309 1314 1313 # B N B N trans
8233 2 1310 1309 1314 1315 # B N B N cis
8234 2 1310 1311 1312 1315 # B N B N cis
8235 1 1310 1311 1312 1429 # B N B N trans
8236 2 1311 1312 1315 1314 # B N B N cis
8237 1 1311 1312 1315 1316 # B N B N trans
8238 1 1311 1312 1429 1434 # B N B N trans
8239 2 1311 1312 1429 1430 # B N B N cis
8240 1 1312 1315 1314 1313 # B N B N trans
8241 1 1312 1315 1316 1319 # B N B N trans
8242 2 1312 1315 1316 1433 # B N B N cis
8243 2 1315 1312 1429 1434 # B N B N cis
8244 1 1315 1312 1429 1430 # B N B N trans
8245 2 1312 1429 1434 1433 # B N B N cis
8246 1 1312 1429 1434 1435 # B N B N trans
8247 2 1312 1429 1430 1425 # B N B N cis
8248 1 1312 1429 1430 1431 # B N B N trans
8249 1 1429 1312 1315 1314 # B N B N trans
8250 2 1429 1312 1315 1316 # B N B N cis
8251 2 1313 1318 1319 1316 # B N B N cis
8252 1 1313 1318 1319 1320 # B N B N trans
8253 2 1318 1313 1314 1315 # B N B N cis
8254 2 1313 1314 1315 1316 # B N B N cis
8255 1 1314 1313 1318 1317 # B N B N trans
8256 2 1314 1313 1318 1319 # B N B N cis
8257 2 1314 1315 1316 1319 # B N B N cis
8258 1 1314 1315 1316 1433 # B N B N trans
8259 2 1315 1316 1319 1318 # B N B N cis
8260 1 1315 1316 1319 1320 # B N B N trans
8261 1 1315 1316 1433 1438 # B N B N trans
8262 2 1315 1316 1433 1434 # B N B N cis
8263 1 1316 1319 1318 1317 # B N B N trans
8264 2 1316 1319 1320 1437 # B N B N cis
8265 2 1319 1316 1433 1438 # B N B N cis
8266 1 1319 1316 1433 1434 # B N B N trans
8267 2 1316 1433 1438 1437 # B N B N cis
8268 1 1316 1433 1438 1439 # B N B N trans
8269 2 1316 1433 1434 1429 # B N B N cis
8270 1 1316 1433 1434 1435 # B N B N trans
8271 1 1433 1316 1319 1318 # B N B N trans
8272 2 1433 1316 1319 1320 # B N B N cis
8273 2 1317 1318 1319 1320 # B N B N cis
8274 1 1318 1319 1320 1437 # B N B N trans
8275 1 1319 1320 1437 1322 # B N B N trans
8276 2 1319 1320 1437 1438 # B N B N cis
8277 2 1320 1437 1322 1321 # B N B N cis
8278 1 1320 1437 1322 1323 # B N B N trans
8279 2 1320 1437 1438 1433 # B N B N cis
8280 1 1320 1437 1438 1439 # B N B N trans
8281 1 1321 1326 1325 1330 # B N B N trans
8282 2 1321 1326 1327 1324 # B N B N cis
8283 1 1321 1326 1327 1328 # B N B N trans
8284 1 1326 1321 1322 1437 # B N B N trans
8285 2 1326 1321 1322 1323 # B N B N cis
8286 1 1321 1322 1437 1438 # B N B N trans
8287 2 1321 1322 1323 1324 # B N B N cis
8288 1 1321 1322 1323 1440 # B N B N trans
8289 1 1322 1321 1326 1325 # B N B N trans
8290 2 1322 1321 1326 1327 # B N B N cis
8291 1 1322 1437 1438 1433 # B N B N trans
8292 2 1322 1437 1438 1439 # B N B N cis
8293 1 1437 1322 1323 1324 # B N B N trans
8294 2 1437 1322 1323 1440 # B N B N cis
8295 2 1322 1323 1324 1327 # B N B N cis
8296 1 1322 1323 1324 1441 # B N B N trans
8297 2 1322 1323 1440 1439 # B N B N cis
8298 1 1322 1323 1440 1557 # B N B N trans
8299 2 1323 1322 1437 1438 # B N B N cis
8300 2 1323 1324 1327 1326 # B N B N cis
8301 1 1323 1324 1327 1328 # B N B N trans
8302 1 1323 1324 1441 1446 # B N B N trans
8303 2 1323 1324 1441 1442 # B N B N cis
8304 1 1324 1323 1440 1439 # B N B N trans
8305 2 1324 1323 1440 1557 # B N B N cis
8306 2 1323 1440 1439 1438 # B N B N cis
8307 1 1323 1440 1439 1436 # B N B N trans
8308 2 1323 1440 1557 1442 # B N B N cis
8309 1 1323 1440 1557 1558 # B N B N trans
8310 1 1440 1323 1324 1327 # B N B N trans
8311 2 1440 1323 1324 1441 # B N B N cis
8312 1 1324 1327 1326 1325 # B N B N trans
8313 1 1324 1327 1328 1331 # B N B N trans
8314 2 1324 1327 1328 1445 # B N B N cis
8315 2 1327 1324 1441 1446 # B N B N cis
8316 1 1327 1324 1441 1442 # B N B N trans
8317 2 1324 1441 1446 1445 # B N B N cis
8318 1 1324 1441 1446 1447 # B N B N trans
8319 2 1324 1441 1442 1557 # B N B N cis
8320 1 1324 1441 1442 1443 # B N B N trans
8321 1 1441 1324 1327 1326 # B N B N trans
8322 2 1441 1324 1327 1328 # B N B N cis
8323 1 1325 1330 1329 1334 # B N B N trans
8324 2 1325 1330 1331 1328 # B N B N cis
8325 1 1325 1330 1331 1332 # B N B N trans
8326 2 1330 1325 1326 1327 # B N B N cis
8327 2 1325 1326 1327 1328 # B N B N cis
8328 1 1326 1325 1330 1329 # B N B N trans
8329 2 1326 1325 1330 1331 # B N B N cis
8330 2 1326 1327 1328 1331 # B N B N cis
8331 1 1326 1327 1328 1445 # B N B N trans
8332 2 1327 1328 1331 1330 # B N B N cis
8333 1 1327 1328 1331 1332 # B N B N trans
8334 1 1327 1328 1445 1450 # B N B N trans
8335 2 1327 1328 1445 1446 # B N B N cis
8336 1 1328 1331 1330 1329 # B N B N trans
8337 1 1328 1331 1332 1335 # B N B N trans
8338 2 1328 1331 1332 1449 # B N B N cis
8339 2 1331 1328 1445 1450 # B N B N cis
8340 1 1331 1328 1445 1446 # B N B N trans
8341 2 1328 1445 1450 1449 # B N B N cis
8342 1 1328 1445 1450 1451 # B N B N trans
8343 2 1328 1445 1446 1441 # B N B N cis
8344 1 1328 1445 1446 1447 # B N B N trans
8345 1 1445 1328 1331 1330 # B N B N trans
8346 2 1445 1328 1331 1332 # B N B N cis
8347 1 1329 1334 1333 1338 # B N B N trans
8348 2 1329 1334 1335 1332 # B N B N cis
8349 1 1329 1334 1335 1336 # B N B N trans
8350 2 1334 1329 1330 1331 # B N B N cis
8351 2 1329 1330 1331 1332 # B N B N cis
8352 1 1330 1329 1334 1333 # B N B N trans
8353 2 1330 1329 1334 1335 # B N B N cis
8354 2 1330 1331 1332 1335 # B N B N cis
8355 1 1330 1331 1332 1449 # B N B N trans
8356 2 1331 1332 1335 1334 # B N B N cis
8357 1 1331 1332 1335 1336 # B N B N trans
8358 1 1331 1332 1449 1454 # B N B N trans
8359 2 1331 1332 1449 1450 # B N B N cis
8360 1 1332 1335 1334 1333 # B N B N trans
8361 1 1332 1335 1336 1339 # B N B N trans
8362 2 1332 1335 1336 1453 # B N B N cis
8363 2 1335 1332 1449 1454 # B N B N cis
8364 1 1335 1332 1449 1450 # B N B N trans
8365 2 1332 1449 1454 1453 # B N B N cis
8366 1 1332 1449 1454 1455 # B N B N trans
8367 2 1332 1449 1450 1445 # B N B N cis
8368 1 1332 1449 1450 1451 # B N B N trans
8369 1 1449 1332 1335 1334 # B N B N trans
8370 2 1449 1332 1335 1336 # B N B N cis
8371 1 1333 1338 1337 1342 # B N B N trans
8372 2 1333 1338 1339 1336 # B N B N cis
8373 1 1333 1338 1339 1340 # B N B N trans
8374 2 1338 1333 1334 1335 # B N B N cis
8375 2 1333 1334 1335 1336 # B N B N cis
8376 1 1334 1333 1338 1337 # B N B N trans
8377 2 1334 1333 1338 1339 # B N B N cis
8378 2 1334 1335 1336 1339 # B N B N cis
8379 1 1334 1335 1336 1453 # B N B N trans
8380 2 1335 1336 1339 1338 # B N B N cis
8381 1 1335 1336 1339 1340 # B N B N trans
8382 1 1335 1336 1453 1458 # B N B N trans
8383 2 1335 1336 1453 1454 # B N B N cis
8384 1 1336 1339 1338 1337 # B N B N trans
8385 1 1336 1339 1340 1343 # B N B N trans
8386 2 1336 1339 1340 1457 # B N B N cis
8387 2 1339 1336 1453 1458 # B N B N cis
8388 1 1339 1336 1453 1454 # B N B N trans
8389 2 1336 1453 1458 1457 # B N B N cis
8390 1 1336 1453 1458 1459 # B N B N trans
8391 2 1336 1453 1454 1449 # B N B N cis
8392 1 1336 1453 1454 1455 # B N B N trans
8393 1 1453 1336 1339 1338 # B N B N trans
8394 2 1453 1336 1339 1340 # B N B N cis
8395 1 1337 1342 1341 1346 # B N B N trans
8396 2 1337 1342 1343 1340 # B N B N cis
8397 1 1337 1342 1343 1344 # B N B N trans
8398 2 1342 1337 1338 1339 # B N B N cis
8399 2 1337 1338 1339 1340 # B N B N cis
8400 1 1338 1337 1342 1341 # B N B N trans
8401 2 1338 1337 1342 1343 # B N B N cis
8402 2 1338 1339 1340 1343 # B N B N cis
8403 1 1338 1339 1340 1457 # B N B N trans
8404 2 1339 1340 1343 1342 # B N B N cis
8405 1 1339 1340 1343 1344 # B N B N trans
8406 1 1339 1340 1457 1462 # B N B N trans
8407 2 1339 1340 1457 1458 # B N B N cis
8408 1 1340 1343 1342 1341 # B N B N trans
8409 1 1340 1343 1344 1347 # B N B N trans
8410 2 1340 1343 1344 1461 # B N B N cis
8411 2 1343 1340 1457 1462 # B N B N cis
8412 1 1343 1340 1457 1458 # B N B N trans
8413 2 1340 1457 1462 1461 # B N B N cis
8414 1 1340 1457 1462 1463 # B N B N trans
8415 2 1340 1457 1458 1453 # B N B N cis
8416 1 1340 1457 1458 1459 # B N B N trans
8417 1 1457 1340 1343 1342 # B N B N trans
8418 2 1457 1340 1343 1344 # B N B N cis
8419 1 1341 1346 1345 1350 # B N B N trans
8420 2 1341 1346 1347 1344 # B N B N cis
8421 1 1341 1346 1347 1348 # B N B N trans
8422 2 1346 1341 1342 1343 # B N B N cis
8423 2 1341 1342 1343 1344 # B N B N cis
8424 1 1342 1341 1346 1345 # B N B N trans
8425 2 1342 1341 1346 1347 # B N B N cis
8426 2 1342 1343 1344 1347 # B N B N cis
8427 1 1342 1343 1344 1461 # B N B N trans
8428 2 1343 1344 1347 1346 # B N B N cis
8429 1 1343 1344 1347 1348 # B N B N trans
8430 1 1343 1344 1461 1466 # B N B N trans
8431 2 1343 1344 1461 1462 # B N B N cis
8432 1 1344 1347 1346 1345 # B N B N trans
8433 1 1344 1347 1348 1351 # B N B N trans
8434 2 1344 1347 1348 1465 # B N B N cis
8435 2 1347 1344 1461 1466 # B N B N cis
8436 1 1347 1344 1461 1462 # B N B N trans
8437 2 1344 1461 1466 1465 # B N B N cis
8438 1 1344 1461 1466 1467 # B N B N trans
8439 2 1344 1461 1462 1457 # B N B N cis
8440 1 1344 1461 1462 1463 # B N B N trans
8441 1 1461 1344 1347 1346 # B N B N trans
8442 2 1461 1344 1347 1348 # B N B N cis
8443 1 1345 1350 1349 1354 # B N B N trans
8444 2 1345 1350 1351 1348 # B N B N cis
8445 1 1345 1350 1351 1352 # B N B N trans
8446 2 1350 1345 1346 1347 # B N B N cis
8447 2 1345 1346 1347 1348 # B N B N cis
8448 1 1346 1345 1350 1349 # B N B N trans
8449 2 1346 1345 1350 1351 # B N B N cis
8450 2 1346 1347 1348 1351 # B N B N cis
8451 1 1346 1347 1348 1465 # B N B N trans
8452 2 1347 1348 1351 1350 # B N B N cis
8453 1 1347 1348 1351 1352 # B N B N trans
8454 1 1347 1348 1465 1470 # B N B N trans
8455 2 1347 1348 1465 1466 # B N B N cis
8456 1 1348 1351 1350 1349 # B N B N trans
8457 1 1348 1351 1352 1355 # B N B N trans
8458 2 1348 1351 1352 1469 # B N B N cis
8459 2 1351 1348 1465 1470 # B N B N cis
8460 1 1351 1348 1465 1466 # B N B N trans
8461 2 1348 1465 1470 1469 # B N B N cis
8462 1 1348 1465 1470 1471 # B N B N trans
8463 2 1348 1465 1466 1461 # B N B N cis
8464 1 1348 1465 1466 1467 # B N B N trans
8465 1 1465 1348 1351 1350 # B N B N trans
8466 2 1465 1348 1351 1352 # B N B N cis
8467 1 1349 1354 1353 1358 # B N B N trans
8468 2 1349 1354 1355 1352 # B N B N cis
8469 1 1349 1354 1355 1356 # B N B N trans
8470 2 1354 1349 1350 1351 # B N B N cis
8471 2 1349 1350 1351 1352 # B N B N cis
8472 1 1350 1349 1354 1353 # B N B N trans
8473 2 1350 1349 1354 1355 # B N B N cis
8474 2 1350 1351 1352 1355 # B N B N cis
8475 1 1350 1351 1352 1469 # B N B N trans
8476 2 1351 1352 1355 1354 # B N B N cis
8477 1 1351 1352 1355 1356 # B N B N trans
8478 1 1351 1352 1469 1474 # B N B N trans
8479 2 1351 1352 1469 1470 # B N B N cis
8480 1 1352 1355 1354 1353 # B N B N trans
8481 1 1352 1355 1356 1359 # B N B N trans
8482 2 1352 1355 1356 1473 # B N B N cis
8483 2 1355 1352 1469 1474 # B N B N cis
8484 1 1355 1352 1469 1470 # B N B N trans
8485 2 1352 1469 1474 1473 # B N B N cis
8486 1 1352 1469 1474 1475 # B N B N trans
8487 2 1352 1469 1470 1465 # B N B N cis
8488 1 1352 1469 1470 1471 # B N B N trans
8489 1 1469 1352 1355 1354 # B N B N trans
8490 2 1469 1352 1355 1356 # B N B N cis
8491 1 1353 1358 1357 1362 # B N B N trans
8492 2 1353 1358 1359 1356 # B N B N cis
8493 1 1353 1358 1359 1360 # B N B N trans
8494 2 1358 1353 1354 1355 # B N B N cis
8495 2 1353 1354 1355 1356 # B N B N cis
8496 1 1354 1353 1358 1357 # B N B N trans
8497 2 1354 1353 1358 1359 # B N B N cis
8498 2 1354 1355 1356 1359 # B N B N cis
8499 1 1354 1355 1356 1473 # B N B N trans
8500 2 1355 1356 1359 1358 # B N B N cis
8501 1 1355 1356 1359 1360 # B N B N trans
8502 1 1355 1356 1473 1478 # B N B N trans
8503 2 1355 1356 1473 1474 # B N B N cis
8504 1 1356 1359 1358 1357 # B N B N trans
8505 1 1356 1359 1360 1363 # B N B N trans
8506 2 1356 1359 1360 1477 # B N B N cis
8507 2 1359 1356 1473 1478 # B N B N cis
8508 1 1359 1356 1473 1474 # B N B N trans
8509 2 1356 1473 1478 1477 # B N B N cis
8510 1 1356 1473 1478 1479 # B N B N trans
8511 2 1356 1473 1474 1469 # B N B N cis
8512 1 1356 1473 1474 1475 # B N B N trans
8513 1 1473 1356 1359 1358 # B N B N trans
8514 2 1473 1356 1359 1360 # B N B N cis
8515 1 1357 1362 1361 1366 # B N B N trans
8516 2 1357 1362 1363 1360 # B N B N cis
8517 1 1357 1362 1363 1364 # B N B N trans
8518 2 1362 1357 1358 1359 # B N B N cis
8519 2 1357 1358 1359 1360 # B N B N cis
8520 1 1358 1357 1362 1361 # B N B N trans
8521 2 1358 1357 1362 1363 # B N B N cis
8522 2 1358 1359 1360 1363 # B N B N cis
8523 1 1358 1359 1360 1477 # B N B N trans
8524 2 1359 1360 1363 1362 # B N B N cis
8525 1 1359 1360 1363 1364 # B N B N trans
8526 1 1359 1360 1477 1482 # B N B N trans
8527 2 1359 1360 1477 1478 # B N B N cis
8528 1 1360 1363 1362 1361 # B N B N trans
8529 1 1360 1363 1364 1367 # B N B N trans
8530 2 1360 1363 1364 1481 # B N B N cis
8531 2 1363 1360 1477 1482 # B N B N cis
8532 1 1363 1360 1477 1478 # B N B N trans
8533 2 1360 1477 1482 1481 # B N B N cis
8534 1 1360 1477 1482 1483 # B N B N trans
8535 2 1360 1477 1478 1473 # B N B N cis
8536 1 1360 1477 1478 1479 # B N B N trans
8537 1 1477 1360 1363 1362 # B N B N trans
8538 2 1477 1360 1363 1364 # B N B N cis
8539 1 1361 1366 1365 1370 # B N B N trans
8540 2 1361 1366 1367 1364 # B N B N cis
8541 1 1361 1366 1367 1368 # B N B N trans
8542 2 1366 1361 1362 1363 # B N B N cis
8543 2 1361 1362 1363 1364 # B N B N cis
8544 1 1362 1361 1366 1365 # B N B N trans
8545 2 1362 1361 1366 1367 # B N B N cis
8546 2 1362 1363 1364 1367 # B N B N cis
8547 1 1362 1363 1364 1481 # B N B N trans
8548 2 1363 1364 1367 1366 # B N B N cis
8549 1 1363 1364 1367 1368 # B N B N trans
8550 1 1363 1364 1481 1486 # B N B N trans
8551 2 1363 1364 1481 1482 # B N B N cis
8552 1 1364 1367 1366 1365 # B N B N trans
8553 1 1364 1367 1368 1371 # B N B N trans
8554 2 1364 1367 1368 1485 # B N B N cis
8555 2 1367 1364 1481 1486 # B N B N cis
8556 1 1367 1364 1481 1482 # B N B N trans
8557 2 1364 1481 1486 1485 # B N B N cis
8558 1 1364 1481 1486 1487 # B N B N trans
8559 2 1364 1481 1482 1477 # B N B N cis
8560 1 1364 1481 1482 1483 # B N B N trans
8561 1 1481 1364 1367 1366 # B N B N trans
8562 2 1481 1364 1367 1368 # B N B N cis
8563 1 1365 1370 1369 1374 # B N B N trans
8564 2 1365 1370 1371 1368 # B N B N cis
8565 1 1365 1370 1371 1372 # B N B N trans
8566 2 1370 1365 1366 1367 # B N B N cis
8567 2 1365 1366 1367 1368 # B N B N cis
8568 1 1366 1365 1370 1369 # B N B N trans
8569 2 1366 1365 1370 1371 # B N B N cis
8570 2 1366 1367 1368 1371 # B N B N cis
8571 1 1366 1367 1368 1485 # B N B N trans
8572 2 1367 1368 1371 1370 # B N B N cis
8573 1 1367 1368 1371 1372 # B N B N trans
8574 1 1367 1368 1485 1490 # B N B N trans
8575 2 1367 1368 1485 1486 # B N B N cis
8576 1 1368 1371 1370 1369 # B N B N trans
8577 1 1368 1371 1372 1375 # B N B N trans
8578 2 1368 1371 1372 1489 # B N B N cis
8579 2 1371 1368 1485 1490 # B N B N cis
8580 1 1371 1368 1485 1486 # B N B N trans
8581 2 1368 1485 1490 1489 # B N B N cis
8582 1 1368 1485 1490 1491 # B N B N trans
8583 2 1368 1485 1486 1481 # B N B N cis
8584 1 1368 1485 1486 1487 # B N B N trans
8585 1 1485 1368 1371 1370 # B N B N trans
8586 2 1485 1368 1371 1372 # B N B N cis
8587 1 1369 1374 1373 1378 # B N B N trans
8588 2 1369 1374 1375 1372 # B N B N cis
8589 1 1369 1374 1375 1376 # B N B N trans
8590 2 1374 1369 1370 1371 # B N B N cis
8591 2 1369 1370 1371 1372 # B N B N cis
8592 1 1370 1369 1374 1373 # B N B N trans
8593 2 1370 1369 1374 1375 # B N B N cis
8594 2 1370 1371 1372 1375 # B N B N cis
8595 1 1370 1371 1372 1489 # B N B N trans
8596 2 1371 1372 1375 1374 # B N B N cis
8597 1 1371 1372 1375 1376 # B N B N trans
8598 1 1371 1372 1489 1494 # B N B N trans
8599 2 1371 1372 1489 1490 # B N B N cis
8600 1 1372 1375 1374 1373 # B N B N trans
8601 1 1372 1375 1376 1379 # B N B N trans
8602 2 1372 1375 1376 1493 # B N B N cis
8603 2 1375 1372 1489 1494 # B N B N cis
8604 1 1375 1372 1489 1490 # B N B N trans
8605 2 1372 1489 1494 1493 # B N B N cis
8606 1 1372 1489 1494 1495 # B N B N trans
8607 2 1372 1489 1490 1485 # B N B N cis
8608 1 1372 1489 1490 1491 # B N B N trans
8609 1 1489 1372 1375 1374 # B N B N trans
8610 2 1489 1372 1375 1376 # B N B N cis
8611 1 1373 1378 1377 1382 # B N B N trans
8612 2 1373 1378 1379 1376 # B N B N cis
8613 1 1373 1378 1379 1380 # B N B N trans
8614 2 1378 1373 1374 1375 # B N B N cis
8615 2 1373 1374 1375 1376 # B N B N cis
8616 1 1374 1373 1378 1377 # B N B N trans
8617 2 1374 1373 1378 1379 # B N B N cis
8618 2 1374 1375 1376 1379 # B N B N cis
8619 1 1374 1375 1376 1493 # B N B N trans
8620 2 1375 1376 1379 1378 # B N B N cis
8621 1 1375 1376 1379 1380 # B N B N trans
8622 1 1375 1376 1493 1498 # B N B N trans
8623 2 1375 1376 1493 1494 # B N B N cis
8624 1 1376 1379 1378 1377 # B N B N trans
8625 1 1376 1379 1380 1383 # B N B N trans
8626 2 1376 1379 1380 1497 # B N B N cis
8627 2 1379 1376 1493 1498 # B N B N cis
8628 1 1379 1376 1493 1494 # B N B N trans
8629 2 1376 1493 1498 1497 # B N B N cis
8630 1 1376 1493 1498 1499 # B N B N trans
8631 2 1376 1493 1494 1489 # B N B N cis
8632 1 1376 1493 1494 1495 # B N B N trans
8633 1 1493 1376 1379 1378 # B N B N trans
8634 2 1493 1376 1379 1380 # B N B N cis
8635 1 1377 1382 1381 1386 # B N B N trans
8636 2 1377 1382 1383 1380 # B N B N cis
8637 1 1377 1382 1383 1384 # B N B N trans
8638 2 1382 1377 1378 1379 # B N B N cis
8639 2 1377 1378 1379 1380 # B N B N cis
8640 1 1378 1377 1382 1381 # B N B N trans
8641 2 1378 1377 1382 1383 # B N B N cis
8642 2 1378 1379 1380 1383 # B N B N cis
8643 1 1378 1379 1380 1497 # B N B N trans
8644 2 1379 1380 1383 1382 # B N B N cis
8645 1 1379 1380 1383 1384 # B N B N trans
8646 1 1379 1380 1497 1502 # B N B N trans
8647 2 1379 1380 1497 1498 # B N B N cis
8648 1 1380 1383 1382 1381 # B N B N trans
8649 1 1380 1383 1384 1387 # B N B N trans
8650 2 1380 1383 1384 1501 # B N B N cis
8651 2 1383 1380 1497 1502 # B N B N cis
8652 1 1383 1380 1497 1498 # B N B N trans
8653 2 1380 1497 1502 1501 # B N B N cis
8654 1 1380 1497 1502 1503 # B N B N trans
8655 2 1380 1497 1498 1493 # B N B N cis
8656 1 1380 1497 1498 1499 # B N B N trans
8657 1 1497 1380 1383 1382 # B N B N trans
8658 2 1497 1380 1383 1384 # B N B N cis
8659 1 1381 1386 1385 1390 # B N B N trans
8660 2 1381 1386 1387 1384 # B N B N cis
8661 1 1381 1386 1387 1388 # B N B N trans
8662 2 1386 1381 1382 1383 # B N B N cis
8663 2 1381 1382 1383 1384 # B N B N cis
8664 1 1382 1381 1386 1385 # B N B N trans
8665 2 1382 1381 1386 1387 # B N B N cis
8666 2 1382 1383 1384 1387 # B N B N cis
8667 1 1382 1383 1384 1501 # B N B N trans
8668 2 1383 1384 1387 1386 # B N B N cis
8669 1 1383 1384 1387 1388 # B N B N trans
8670 1 1383 1384 1501 1506 # B N B N trans
8671 2 1383 1384 1501 1502 # B N B N cis
8672 1 1384 1387 1386 1385 # B N B N trans
8673 1 1384 1387 1388 1391 # B N B N trans
8674 2 1384 1387 1388 1505 # B N B N cis
8675 2 1387 1384 1501 1506 # B N B N cis
8676 1 1387 1384 1501 1502 # B N B N trans
8677 2 1384 1501 1506 1505 # B N B N cis
8678 1 1384 1501 1506 1507 # B N B N trans
8679 2 1384 1501 1502 1497 # B N B N cis
8680 1 1384 1501 1502 1503 # B N B N trans
8681 1 1501 1384 1387 1386 # B N B N trans
8682 2 1501 1384 1387 1388 # B N B N cis
8683 1 1385 1390 1389 1394 # B N B N trans
8684 2 1385 1390 1391 1388 # B N B N cis
8685 1 1385 1390 1391 1392 # B N B N trans
8686 2 1390 1385 1386 1387 # B N B N cis
8687 2 1385 1386 1387 1388 # B N B N cis
8688 1 1386 1385 1390 1389 # B N B N trans
8689 2 1386 1385 1390 1391 # B N B N cis
8690 2 1386 1387 1388 1391 # B N B N cis
8691 1 1386 1387 1388 1505 # B N B N trans
8692 2 1387 1388 1391 1390 # B N B N cis
8693 1 1387 1388 1391 1392 # B N B N trans
8694 1 1387 1388 1505 1510 # B N B N trans
8695 2 1387 1388 1505 1506 # B N B N cis
8696 1 1388 1391 1390 1389 # B N B N trans
8697 1 1388 1391 1392 1395 # B N B N trans
8698 2 1388 1391 1392 1509 # B N B N cis
8699 2 1391 1388 1505 1510 # B N B N cis
8700 1 1391 1388 1505 1506 # B N B N trans
8701 2 1388 1505 1510 1509 # B N B N cis
8702 1 1388 1505 1510 1511 # B N B N trans
8703 2 1388 1505 1506 1501 # B N B N cis
8704 1 1388 1505 1506 1507 # B N B N trans
8705 1 1505 1388 1391 1390 # B N B N trans
8706 2 1505 1388 1391 1392 # B N B N cis
8707 1 1389 1394 1393 1398 # B N B N trans
8708 2 1389 1394 1395 1392 # B N B N cis
8709 1 1389 1394 1395 1396 # B N B N trans
8710 2 1394 1389 1390 1391 # B N B N cis
8711 2 1389 1390 1391 1392 # B N B N cis
8712 1 1390 1389 1394 1393 # B N B N trans
8713 2 1390 1389 1394 1395 # B N B N cis
8714 2 1390 1391 1392 1395 # B N B N cis
8715 1 1390 1391 1392 1509 # B N B N trans
8716 2 1391 1392 1395 1394 # B N B N cis
8717 1 1391 1392 1395 1396 # B N B N trans
8718 1 1391 1392 1509 1514 # B N B N trans
8719 2 1391 1392 1509 1510 # B N B N cis
8720 1 1392 1395 1394 1393 # B N B N trans
8721 1 1392 1395 1396 1399 # B N B N trans
8722 2 1392 1395 1396 1513 # B N B N cis
8723 2 1395 1392 1509 1514 # B N B N cis
8724 1 1395 1392 1509 1510 # B N B N trans
8725 2 1392 1509 1514 1513 # B N B N cis
8726 1 1392 1509 1514 1515 # B N B N trans
8727 2 1392 1509 1510 1505 # B N B N cis
8728 1 1392 1509 1510 1511 # B N B N trans
8729 1 1509 1392 1395 1394 # B N B N trans
8730 2 1509 1392 1395 1396 # B N B N cis
8731 1 1393 1398 1397 1402 # B N B N trans
8732 2 1393 1398 1399 1396 # B N B N cis
8733 1 1393 1398 1399 1400 # B N B N trans
8734 2 1398 1393 1394 1395 # B N B N cis
8735 2 1393 1394 1395 1396 # B N B N cis
8736 1 1394 1393 1398 1397 # B N B N trans
8737 2 1394 1393 1398 1399 # B N B N cis
8738 2 1394 1395 1396 1399 # B N B N cis
8739 1 1394 1395 1396 1513 # B N B N trans
8740 2 1395 1396 1399 1398 # B N B N cis
8741 1 1395 1396 1399 1400 # B N B N trans
8742 1 1395 1396 1513 1518 # B N B N trans
8743 2 1395 1396 1513 1514 # B N B N cis
8744 1 1396 1399 1398 1397 # B N B N trans
8745 1 1396 1399 1400 1403 # B N B N trans
8746 2 1396 1399 1400 1517 # B N B N cis
8747 2 1399 1396 1513 1518 # B N B N cis
8748 1 1399 1396 1513 1514 # B N B N trans
8749 2 1396 1513 1518 1517 # B N B N cis
8750 1 1396 1513 1518 1519 # B N B N trans
8751 2 1396 1513 1514 1509 # B N B N cis
8752 1 1396 1513 1514 1515 # B N B N trans
8753 1 1513 1396 1399 1398 # B N B N trans
8754 2 1513 1396 1399 1400 # B N B N cis
8755 1 1397 1402 1401 1406 # B N B N trans
8756 2 1397 1402 1403 1400 # B N B N cis
8757 1 1397 1402 1403 1404 # B N B N trans
8758 2 1402 1397 1398 1399 # B N B N cis
8759 2 1397 1398 1399 1400 # B N B N cis
8760 1 1398 1397 1402 1401 # B N B N trans
8761 2 1398 1397 1402 1403 # B N B N cis
8762 2 1398 1399 1400 1403 # B N B N cis
8763 1 1398 1399 1400 1517 # B N B N trans
8764 2 1399 1400 1403 1402 # B N B N cis
8765 1 1399 1400 1403 1404 # B N B N trans
8766 1 1399 1400 1517 1522 # B N B N trans
8767 2 1399 1400 1517 1518 # B N B N cis
8768 1 1400 1403 1402 1401 # B N B N trans
8769 1 1400 1403 1404 1407 # B N B N trans
8770 2 1400 1403 1404 1521 # B N B N cis
8771 2 1403 1400 1517 1522 # B N B N cis
8772 1 1403 1400 1517 1518 # B N B N trans
8773 2 1400 1517 1522 1521 # B N B N cis
8774 1 1400 1517 1522 1523 # B N B N trans
8775 2 1400 1517 1518 1513 # B N B N cis
8776 1 1400 1517 1518 1519 # B N B N trans
8777 1 1517 1400 1403 1402 # B N B N trans
8778 2 1517 1400 1403 1404 # B N B N cis
8779 1 1401 1406 1405 1410 # B N B N trans
8780 2 1401 1406 1407 1404 # B N B N cis
8781 1 1401 1406 1407 1408 # B N B N trans
8782 2 1406 1401 1402 1403 # B N B N cis
8783 2 1401 1402 1403 1404 # B N B N cis
8784 1 1402 1401 1406 1405 # B N B N trans
8785 2 1402 1401 1406 1407 # B N B N cis
8786 2 1402 1403 1404 1407 # B N B N cis
8787 1 1402 1403 1404 1521 # B N B N trans
8788 2 1403 1404 1407 1406 # B N B N cis
8789 1 1403 1404 1407 1408 # B N B N trans
8790 1 1403 1404 1521 1526 # B N B N trans
8791 2 1403 1404 1521 1522 # B N B N cis
8792 1 1404 1407 1406 1405 # B N B N trans
8793 1 1404 1407 1408 1411 # B N B N trans
8794 2 1404 1407 1408 1525 # B N B N cis
8795 2 1407 1404 1521 1526 # B N B N cis
8796 1 1407 1404 1521 1522 # B N B N trans
8797 2 1404 1521 1526 1525 # B N B N cis
8798 1 1404 1521 1526 1527 # B N B N trans
8799 2 1404 1521 1522 1517 # B N B N cis
8800 1 1404 1521 1522 1523 # B N B N trans
8801 1 1521 1404 1407 1406 # B N B N trans
8802 2 1521 1404 1407 1408 # B N B N cis
8803 1 1405 1410 1409 1414 # B N B N trans
8804 2 1405 1410 1411 1408 # B N B N cis
8805 1 1405 1410 1411 1412 # B N B N trans
8806 2 1410 1405 1406 1407 # B N B N cis
8807 2 1405 1406 1407 1408 # B N B N cis
8808 1 1406 1405 1410 1409 # B N B N trans
8809 2 1406 1405 1410 1411 # B N B N cis
8810 2 1406 1407 1408 1411 # B N B N cis
8811 1 1406 1407 1408 1525 # B N B N trans
8812 2 1407 1408 1411 1410 # B N B N cis
8813 1 1407 1408 1411 1412 # B N B N trans
8814 1 1407 1408 1525 1530 # B N B N trans
8815 2 1407 1408 1525 1526 # B N B N cis
8816 1 1408 1411 1410 1409 # B N B N trans
8817 1 1408 1411 1412 1415 # B N B N trans
8818 2 1408 1411 1412 1529 # B N B N cis
8819 2 1411 1408 1525 1530 # B N B N cis
8820 1 1411 1408 1525 1526 # B N B N trans
8821 2 1408 1525 1530 1529 # B N B N cis
8822 1 1408 1525 1530 1531 # B N B N trans
8823 2 1408 1525 1526 1521 # B N B N cis
8824 1 1408 1525 1526 1527 # B N B N trans
8825 1 1525 1408 1411 1410 # B N B N trans
8826 2 1525 1408 1411 1412 # B N B N cis
8827 1 1409 1414 1413 1418 # B N B N trans
8828 2 1409 1414 1415 1412 # B N B N cis
8829 1 1409 1414 1415 1416 # B N B N trans
8830 2 1414 1409 1410 1411 # B N B N cis
8831 2 1409 1410 1411 1412 # B N B N cis
8832 1 1410 1409 1414 1413 # B N B N trans
8833 2 1410 1409 1414 1415 # B N B N cis
8834 2 1410 1411 1412 1415 # B N B N cis
8835 1 1410 1411 1412 1529 # B N B N trans
8836 2 1411 1412 1415 1414 # B N B N cis
8837 1 1411 1412 1415 1416 # B N B N trans
8838 1 1411 1412 1529 1534 # B N B N trans
8839 2 1411 1412 1529 1530 # B N B N cis
8840 1 1412 1415 1414 1413 # B N B N trans
8841 1 1412 1415 1416 1419 # B N B N trans
8842 2 1412 1415 1416 1533 # B N B N cis
8843 2 1415 1412 1529 1534 # B N B N cis
8844 1 1415 1412 1529 1530 # B N B N trans
8845 2 1412 1529 1534 1533 # B N B N cis
8846 1 1412 1529 1534 1535 # B N B N trans
8847 2 1412 1529 1530 1525 # B N B N cis
8848 1 1412 1529 1530 1531 # B N B N trans
8849 1 1529 1412 1415 1414 # B N B N trans
8850 2 1529 1412 1415 1416 # B N B N cis
8851 1 1413 1418 1417 1422 # B N B N trans
8852 2 1413 1418 1419 1416 # B N B N cis
8853 1 1413 1418 1419 1420 # B N B N trans
8854 2 1418 1413 1414 1415 # B N B N cis
8855 2 1413 1414 1415 1416 # B N B N cis
8856 1 1414 1413 1418 1417 # B N B N trans
8857 2 1414 1413 1418 1419 # B N B N cis
8858 2 1414 1415 1416 1419 # B N B N cis
8859 1 1414 1415 1416 1533 # B N B N trans
8860 2 1415 1416 1419 1418 # B N B N cis
8861 1 1415 1416 1419 1420 # B N B N trans
8862 1 1415 1416 1533 1538 # B N B N trans
8863 2 1415 1416 1533 1534 # B N B N cis
8864 1 1416 1419 1418 1417 # B N B N trans
8865 1 1416 1419 1420 1423 # B N B N trans
8866 2 1416 1419 1420 1537 # B N B N cis
8867 2 1419 1416 1533 1538 # B N B N cis
8868 1 1419 1416 1533 1534 # B N B N trans
8869 2 1416 1533 1538 1537 # B N B N cis
8870 1 1416 1533 1538 1539 # B N B N trans
8871 2 1416 1533 1534 1529 # B N B N cis
8872 1 1416 1533 1534 1535 # B N B N trans
8873 1 1533 1416 1419 1418 # B N B N trans
8874 2 1533 1416 1419 1420 # B N B N cis
8875 1 1417 1422 1421 1426 # B N B N trans
8876 2 1417 1422 1423 1420 # B N B N cis
8877 1 1417 1422 1423 1424 # B N B N trans
8878 2 1422 1417 1418 1419 # B N B N cis
8879 2 1417 1418 1419 1420 # B N B N cis
8880 1 1418 1417 1422 1421 # B N B N trans
8881 2 1418 1417 1422 1423 # B N B N cis
8882 2 1418 1419 1420 1423 # B N B N cis
8883 1 1418 1419 1420 1537 # B N B N trans
8884 2 1419 1420 1423 1422 # B N B N cis
8885 1 1419 1420 1423 1424 # B N B N trans
8886 1 1419 1420 1537 1542 # B N B N trans
8887 2 1419 1420 1537 1538 # B N B N cis
8888 1 1420 1423 1422 1421 # B N B N trans
8889 1 1420 1423 1424 1427 # B N B N trans
8890 2 1420 1423 1424 1541 # B N B N cis
8891 2 1423 1420 1537 1542 # B N B N cis
8892 1 1423 1420 1537 1538 # B N B N trans
8893 2 1420 1537 1542 1541 # B N B N cis
8894 1 1420 1537 1542 1543 # B N B N trans
8895 2 1420 1537 1538 1533 # B N B N cis
8896 1 1420 1537 1538 1539 # B N B N trans
8897 1 1537 1420 1423 1422 # B N B N trans
8898 2 1537 1420 1423 1424 # B N B N cis
8899 1 1421 1426 1425 1430 # B N B N trans
8900 2 1421 1426 1427 1424 # B N B N cis
8901 1 1421 1426 1427 1428 # B N B N trans
8902 2 1426 1421 1422 1423 # B N B N cis
8903 2 1421 1422 1423 1424 # B N B N cis
8904 1 1422 1421 1426 1425 # B N B N trans
8905 2 1422 1421 1426 1427 # B N B N cis
8906 2 1422 1423 1424 1427 # B N B N cis
8907 1 1422 1423 1424 1541 # B N B N trans
8908 2 1423 1424 1427 1426 # B N B N cis
8909 1 1423 1424 1427 1428 # B N B N trans
8910 1 1423 1424 1541 1546 # B N B N trans
8911 2 1423 1424 1541 1542 # B N B N cis
8912 1 1424 1427 1426 1425 # B N B N trans
8913 1 1424 1427 1428 1431 # B N B N trans
8914 2 1424 1427 1428 1545 # B N B N cis
8915 2 1427 1424 1541 1546 # B N B N cis
8916 1 1427 1424 1541 1542 # B N B N trans
8917 2 1424 1541 1546 1545 # B N B N cis
8918 1 1424 1541 1546 1547 # B N B N trans
8919 2 1424 1541 1542 1537 # B N B N cis
8920 1 1424 1541 1542 1543 # B N B N trans
8921 1 1541 1424 1427 1426 # B N B N trans
8922 2 1541 1424 1427 1428 # B N B N cis
8923 1 1425 1430 1429 1434 # B N B N trans
8924 2 1425 1430 1431 1428 # B N B N cis
8925 1 1425 1430 1431 1432 # B N B N trans
8926 2 1430 1425 1426 1427 # B N B N cis
8927 2 1425 1426 1427 1428 # B N B N cis
8928 1 1426 1425 1430 1429 # B N B N trans
8929 2 1426 1425 1430 1431 # B N B N cis
8930 2 1426 1427 1428 1431 # B N B N cis
8931 1 1426 1427 1428 1545 # B N B N trans
8932 2 1427 1428 1431 1430 # B N B N cis
8933 1 1427 1428 1431 1432 # B N B N trans
8934 1 1427 1428 1545 1550 # B N B N trans
8935 2 1427 1428 1545 1546 # B N B N cis
8936 1 1428 1431 1430 1429 # B N B N trans
8937 1 1428 1431 1432 1435 # B N B N trans
8938 2 1428 1431 1432 1549 # B N B N cis
8939 2 1431 1428 1545 1550 # B N B N cis
8940 1 1431 1428 1545 1546 # B N B N trans
8941 2 1428 1545 1550 1549 # B N B N cis
8942 1 1428 1545 1550 1551 # B N B N trans
8943 2 1428 1545 1546 1541 # B N B N cis
8944 1 1428 1545 1546 1547 # B N B N trans
8945 1 1545 1428 1431 1430 # B N B N trans
8946 2 1545 1428 1431 1432 # B N B N cis
8947 1 1429 1434 1433 1438 # B N B N trans
8948 2 1429 1434 1435 1432 # B N B N cis
8949 1 1429 1434 1435 1436 # B N B N trans
8950 2 1434 1429 1430 1431 # B N B N cis
8951 2 1429 1430 1431 1432 # B N B N cis
8952 1 1430 1429 1434 1433 # B N B N trans
8953 2 1430 1429 1434 1435 # B N B N cis
8954 2 1430 1431 1432 1435 # B N B N cis
8955 1 1430 1431 1432 1549 # B N B N trans
8956 2 1431 1432 1435 1434 # B N B N cis
8957 1 1431 1432 1435 1436 # B N B N trans
8958 1 1431 1432 1549 1554 # B N B N trans
8959 2 1431 1432 1549 1550 # B N B N cis
8960 1 1432 1435 1434 1433 # B N B N trans
8961 1 1432 1435 1436 1439 # B N B N trans
8962 2 1432 1435 1436 1553 # B N B N cis
8963 2 1435 1432 1549 1554 # B N B N cis
8964 1 1435 1432 1549 1550 # B N B N trans
8965 2 1432 1549 1554 1553 # B N B N cis
8966 1 1432 1549 1554 1555 # B N B N trans
8967 2 1432 1549 1550 1545 # B N B N cis
8968 1 1432 1549 1550 1551 # B N B N trans
8969 1 1549 1432 1435 1434 # B N B N trans
8970 2 1549 1432 1435 1436 # B N B N cis
8971 2 1433 1438 1439 1436 # B N B N cis
8972 1 1433 1438 1439 1440 # B N B N trans
8973 2 1438 1433 1434 1435 # B N B N cis
8974 2 1433 1434 1435 1436 # B N B N cis
8975 1 1434 1433 1438 1437 # B N B N trans
8976 2 1434 1433 1438 1439 # B N B N cis
8977 2 1434 1435 1436 1439 # B N B N cis
8978 1 1434 1435 1436 1553 # B N B N trans
8979 2 1435 1436 1439 1438 # B N B N cis
8980 1 1435 1436 1439 1440 # B N B N trans
8981 1 1435 1436 1553 1558 # B N B N trans
8982 2 1435 1436 1553 1554 # B N B N cis
8983 1 1436 1439 1438 1437 # B N B N trans
8984 2 1436 1439 1440 1557 # B N B N cis
8985 2 1439 1436 1553 1558 # B N B N cis
8986 1 1439 1436 1553 1554 # B N B N trans
8987 2 1436 1553 1558 1557 # B N B N cis
8988 1 1436 1553 1558 1559 # B N B N trans
8989 2 1436 1553 1554 1549 # B N B N cis
8990 1 1436 1553 1554 1555 # B N B N trans
8991 1 1553 1436 1439 1438 # B N B N trans
8992 2 1553 1436 1439 1440 # B N B N cis
8993 2 1437 1438 1439 1440 # B N B N cis
8994 1 1438 1439 1440 1557 # B N B N trans
8995 1 1439 1440 1557 1442 # B N B N trans
8996 2 1439 1440 1557 1558 # B N B N cis
8997 2 1440 1557 1442 1441 # B N B N cis
8998 1 1440 1557 1442 1443 # B N B N trans
8999 2 1440 1557 1558 1553 # B N B N cis
9000 1 1440 1557 1558 1559 # B N B N trans
9001 1 1441 1446 1445 1450 # B N B N trans
9002 1 1441 1446 1447 1448 # B N B N trans
9003 2 1441 1446 1447 1444 # B N B N cis
9004 1 1446 1441 1442 1557 # B N B N trans
9005 2 1446 1441 1442 1443 # B N B N cis
9006 1 1441 1442 1557 1558 # B N B N trans
9007 2 1441 1442 1443 1444 # B N B N cis
9008 1 1441 1442 1443 1560 # B N B N trans
9009 1 1442 1441 1446 1445 # B N B N trans
9010 2 1442 1441 1446 1447 # B N B N cis
9011 1 1442 1557 1558 1553 # B N B N trans
9012 2 1442 1557 1558 1559 # B N B N cis
9013 1 1557 1442 1443 1444 # B N B N trans
9014 2 1557 1442 1443 1560 # B N B N cis
9015 2 1442 1443 1444 1447 # B N B N cis
9016 1 1442 1443 1444 1561 # B N B N trans
9017 2 1442 1443 1560 1559 # B N B N cis
9018 1 1442 1443 1560 1677 # B N B N trans
9019 2 1443 1442 1557 1558 # B N B N cis
9020 2 1443 1444 1447 1446 # B N B N cis
9021 1 1443 1444 1447 1448 # B N B N trans
9022 2 1443 1444 1561 1562 # B N B N cis
9023 1 1443 1444 1561 1566 # B N B N trans
9024 1 1444 1443 1560 1559 # B N B N trans
9025 2 1444 1443 1560 1677 # B N B N cis
9026 2 1443 1560 1559 1558 # B N B N cis
9027 1 1443 1560 1559 1556 # B N B N trans
9028 1 1443 1560 1677 1678 # B N B N trans
9029 2 1443 1560 1677 1562 # B N B N cis
9030 1 1560 1443 1444 1447 # B N B N trans
9031 2 1560 1443 1444 1561 # B N B N cis
9032 1 1444 1447 1446 1445 # B N B N trans
9033 1 1444 1447 1448 1451 # B N B N trans
9034 2 1444 1447 1448 1565 # B N B N cis
9035 1 1447 1444 1561 1562 # B N B N trans
9036 2 1447 1444 1561 1566 # B N B N cis
9037 1 1444 1561 1562 1563 # B N B N trans
9038 2 1444 1561 1562 1677 # B N B N cis
9039 2 1444 1561 1566 1565 # B N B N cis
9040 1 1444 1561 1566 1567 # B N B N trans
9041 1 1561 1444 1447 1446 # B N B N trans
9042 2 1561 1444 1447 1448 # B N B N cis
9043 1 1445 1450 1449 1454 # B N B N trans
9044 1 1445 1450 1451 1452 # B N B N trans
9045 2 1445 1450 1451 1448 # B N B N cis
9046 2 1450 1445 1446 1447 # B N B N cis
9047 2 1445 1446 1447 1448 # B N B N cis
9048 1 1446 1445 1450 1449 # B N B N trans
9049 2 1446 1445 1450 1451 # B N B N cis
9050 2 1446 1447 1448 1451 # B N B N cis
9051 1 1446 1447 1448 1565 # B N B N trans
9052 2 1447 1448 1451 1450 # B N B N cis
9053 1 1447 1448 1451 1452 # B N B N trans
9054 2 1447 1448 1565 1566 # B N B N cis
9055 1 1447 1448 1565 1570 # B N B N trans
9056 1 1448 1451 1450 1449 # B N B N trans
9057 1 1448 1451 1452 1455 # B N B N trans
9058 2 1448 1451 1452 1569 # B N B N cis
9059 1 1451 1448 1565 1566 # B N B N trans
9060 2 1451 1448 1565 1570 # B N B N cis
9061 2 1448 1565 1566 1561 # B N B N cis
9062 1 1448 1565 1566 1567 # B N B N trans
9063 2 1448 1565 1570 1569 # B N B N cis
9064 1 1448 1565 1570 1571 # B N B N trans
9065 1 1565 1448 1451 1450 # B N B N trans
9066 2 1565 1448 1451 1452 # B N B N cis
9067 1 1449 1454 1453 1458 # B N B N trans
9068 1 1449 1454 1455 1456 # B N B N trans
9069 2 1449 1454 1455 1452 # B N B N cis
9070 2 1454 1449 1450 1451 # B N B N cis
9071 2 1449 1450 1451 1452 # B N B N cis
9072 1 1450 1449 1454 1453 # B N B N trans
9073 2 1450 1449 1454 1455 # B N B N cis
9074 2 1450 1451 1452 1455 # B N B N cis
9075 1 1450 1451 1452 1569 # B N B N trans
9076 2 1451 1452 1455 1454 # B N B N cis
9077 1 1451 1452 1455 1456 # B N B N trans
9078 2 1451 1452 1569 1570 # B N B N cis
9079 1 1451 1452 1569 1574 # B N B N trans
9080 1 1452 1455 1454 1453 # B N B N trans
9081 1 1452 1455 1456 1459 # B N B N trans
9082 2 1452 1455 1456 1573 # B N B N cis
9083 1 1455 1452 1569 1570 # B N B N trans
9084 2 1455 1452 1569 1574 # B N B N cis
9085 2 1452 1569 1570 1565 # B N B N cis
9086 1 1452 1569 1570 1571 # B N B N trans
9087 2 1452 1569 1574 1573 # B N B N cis
9088 1 1452 1569 1574 1575 # B N B N trans
9089 1 1569 1452 1455 1454 # B N B N trans
9090 2 1569 1452 1455 1456 # B N B N cis
9091 1 1453 1458 1457 1462 # B N B N trans
9092 1 1453 1458 1459 1460 # B N B N trans
9093 2 1453 1458 1459 1456 # B N B N cis
9094 2 1458 1453 1454 1455 # B N B N cis
9095 2 1453 1454 1455 1456 # B N B N cis
9096 1 1454 1453 1458 1457 # B N B N trans
9097 2 1454 1453 1458 1459 # B N B N cis
9098 2 1454 1455 1456 1459 # B N B N cis
9099 1 1454 1455 1456 1573 # B N B N trans
9100 2 1455 1456 1459 1458 # B N B N cis
9101 1 1455 1456 1459 1460 # B N B N trans
9102 2 1455 1456 1573 1574 # B N B N cis
9103 1 1455 1456 1573 1578 # B N B N trans
9104 1 1456 1459 1458 1457 # B N B N trans
9105 1 1456 1459 1460 1463 # B N B N trans
9106 2 1456 1459 1460 1577 # B N B N cis
9107 1 1459 1456 1573 1574 # B N B N trans
9108 2 1459 1456 1573 1578 # B N B N cis
9109 2 1456 1573 1574 1569 # B N B N cis
9110 1 1456 1573 1574 1575 # B N B N trans
9111 2 1456 1573 1578 1577 # B N B N cis
9112 1 1456 1573 1578 1579 # B N B N trans
9113 1 1573 1456 1459 1458 # B N B N trans
9114 2 1573 1456 1459 1460 # B N B N cis
9115 1 1457 1462 1461 1466 # B N B N trans
9116 1 1457 1462 1463 1464 # B N B N trans
9117 2 1457 1462 1463 1460 # B N B N cis
9118 2 1462 1457 1458 1459 # B N B N cis
9119 2 1457 1458 1459 1460 # B N B N cis
9120 1 1458 1457 1462 1461 # B N B N trans
9121 2 1458 1457 1462 1463 # B N B N cis
9122 2 1458 1459 1460 1463 # B N B N cis
9123 1 1458 1459 1460 1577 # B N B N trans
9124 2 1459 1460 1463 1462 # B N B N cis
9125 1 1459 1460 1463 1464 # B N B N trans
9126 2 1459 1460 1577 1578 # B N B N cis
9127 1 1459 1460 1577 1582 # B N B N trans
9128 1 1460 1463 1462 1461 # B N B N trans
9129 1 1460 1463 1464 1467 # B N B N trans
9130 2 1460 1463 1464 1581 # B N B N cis
9131 1 1463 1460 1577 1578 # B N B N trans
9132 2 1463 1460 1577 1582 # B N B N cis
9133 2 1460 1577 1578 1573 # B N B N cis
9134 1 1460 1577 1578 1579 # B N B N trans
9135 2 1460 1577 1582 1581 # B N B N cis
9136 1 1460 1577 1582 1583 # B N B N trans
9137 1 1577 1460 1463 1462 # B N B N trans
9138 2 1577 1460 1463 1464 # B N B N cis
9139 1 1461 1466 1465 1470 # B N B N trans
9140 1 1461 1466 1467 1468 # B N B N trans
9141 2 1461 1466 1467 1464 # B N B N cis
9142 2 1466 1461 1462 1463 # B N B N cis
9143 2 1461 1462 1463 1464 # B N B N cis
9144 1 1462 1461 1466 1465 # B N B N trans
9145 2 1462 1461 1466 1467 # B N B N cis
9146 2 1462 1463 1464 1467 # B N B N cis
9147 1 1462 1463 1464 1581 # B N B N trans
9148 2 1463 1464 1467 1466 # B N B N cis
9149 1 1463 1464 1467 1468 # B N B N trans
9150 2 1463 1464 1581 1582 # B N B N cis
9151 1 1463 1464 1581 1586 # B N B N trans
9152 1 1464 1467 1466 1465 # B N B N trans
9153 1 1464 1467 1468 1471 # B N B N trans
9154 2 1464 1467 1468 1585 # B N B N cis
9155 1 1467 1464 1581 1582 # B N B N trans
9156 2 1467 1464 1581 1586 # B N B N cis
9157 2 1464 1581 1582 1577 # B N B N cis
9158 1 1464 1581 1582 1583 # B N B N trans
9159 2 1464 1581 1586 1585 # B N B N cis
9160 1 1464 1581 1586 1587 # B N B N trans
9161 1 1581 1464 1467 1466 # B N B N trans
9162 2 1581 1464 1467 1468 # B N B N cis
9163 1 1465 1470 1469 1474 # B N B N trans
9164 1 1465 1470 1471 1472 # B N B N trans
9165 2 1465 1470 1471 1468 # B N B N cis
9166 2 1470 1465 1466 1467 # B N B N cis
9167 2 1465 1466 1467 1468 # B N B N cis
9168 1 1466 1465 1470 1469 # B N B N trans
9169 2 1466 1465 1470 1471 # B N B N cis
9170 2 1466 1467 1468 1471 # B N B N cis
9171 1 1466 1467 1468 1585 # B N B N trans
9172 2 1467 1468 1471 1470 # B N B N cis
9173 1 1467 1468 1471 1472 # B N B N trans
9174 2 1467 1468 1585 1586 # B N B N cis
9175 1 1467 1468 1585 1590 # B N B N trans
9176 1 1468 1471 1470 1469 # B N B N trans
9177 1 1468 1471 1472 1475 # B N B N trans
9178 2 1468 1471 1472 1589 # B N B N cis
9179 1 1471 1468 1585 1586 # B N B N trans
9180 2 1471 1468 1585 1590 # B N B N cis
9181 2 1468 1585 1586 1581 # B N B N cis
9182 1 1468 1585 1586 1587 # B N B N trans
9183 2 1468 1585 1590 1589 # B N B N cis
9184 1 1468 1585 1590 1591 # B N B N trans
9185 1 1585 1468 1471 1470 # B N B N trans
9186 2 1585 1468 1471 1472 # B N B N cis
9187 1 1469 1474 1473 1478 # B N B N trans
9188 1 1469 1474 1475 1476 # B N B N trans
9189 2 1469 1474 1475 1472 # B N B N cis
9190 2 1474 1469 1470 1471 # B N B N cis
9191 2 1469 1470 1471 1472 # B N B N cis
9192 1 1470 1469 1474 1473 # B N B N trans
9193 2 1470 1469 1474 1475 # B N B N cis
9194 2 1470 1471 1472 1475 # B N B N cis
9195 1 1470 1471 1472 1589 # B N B N trans
9196 2 1471 1472 1475 1474 # B N B N cis
9197 1 1471 1472 1475 1476 # B N B N trans
9198 2 1471 1472 1589 1590 # B N B N cis
9199 1 1471 1472 1589 1594 # B N B N trans
9200 1 1472 1475 1474 1473 # B N B N trans
9201 1 1472 1475 1476 1479 # B N B N trans
9202 2 1472 1475 1476 1593 # B N B N cis
9203 1 1475 1472 1589 1590 # B N B N trans
9204 2 1475 1472 1589 1594 # B N B N cis
9205 2 1472 1589 1590 1585 # B N B N cis
9206 1 1472 1589 1590 1591 # B N B N trans
9207 2 1472 1589 1594 1593 # B N B N cis
9208 1 1472 1589 1594 1595 # B N B N trans
9209 1 1589 1472 1475 1474 # B N B N trans
9210 2 1589 1472 1475 1476 # B N B N cis
9211 1 1473 1478 1477 1482 # B N B N trans
9212 1 1473 1478 1479 1480 # B N B N trans
9213 2 1473 1478 1479 1476 # B N B N cis
9214 2 1478 1473 1474 1475 # B N B N cis
9215 2 1473 1474 1475 1476 # B N B N cis
9216 1 1474 1473 1478 1477 # B N B N trans
9217 2 1474 1473 1478 1479 # B N B N cis
9218 2 1474 1475 1476 1479 # B N B N cis
9219 1 1474 1475 1476 1593 # B N B N trans
9220 2 1475 1476 1479 1478 # B N B N cis
9221 1 1475 1476 1479 1480 # B N B N trans
9222 2 1475 1476 1593 1594 # B N B N cis
9223 1 1475 1476 1593 1598 # B N B N trans
9224 1 1476 1479 1478 1477 # B N B N trans
9225 1 1476 1479 1480 1483 # B N B N trans
9226 2 1476 1479 1480 1597 # B N B N cis
9227 1 1479 1476 1593 1594 # B N B N trans
9228 2 1479 1476 1593 1598 # B N B N cis
9229 2 1476 1593 1594 1589 # B N B N cis
9230 1 1476 1593 1594 1595 # B N B N trans
9231 2 1476 1593 1598 1597 # B N B N cis
9232 1 1476 1593 1598 1599 # B N B N trans
9233 1 1593 1476 1479 1478 # B N B N trans
9234 2 1593 1476 1479 1480 # B N B N cis
9235 1 1477 1482 1481 1486 # B N B N trans
9236 1 1477 1482 1483 1484 # B N B N trans
9237 2 1477 1482 1483 1480 # B N B N cis
9238 2 1482 1477 1478 1479 # B N B N cis
9239 2 1477 1478 1479 1480 # B N B N cis
9240 1 1478 1477 1482 1481 # B N B N trans
9241 2 1478 1477 1482 1483 # B N B N cis
9242 2 1478 1479 1480 1483 # B N B N cis
9243 1 1478 1479 1480 1597 # B N B N trans
9244 2 1479 1480 1483 1482 # B N B N cis
9245 1 1479 1480 1483 1484 # B N B N trans
9246 2 1479 1480 1597 1598 # B N B N cis
9247 1 1479 1480 1597 1602 # B N B N trans
9248 1 1480 1483 1482 1481 # B N B N trans
9249 1 1480 1483 1484 1487 # B N B N trans
9250 2 1480 1483 1484 1601 # B N B N cis
9251 1 1483 1480 1597 1598 # B N B N trans
9252 2 1483 1480 1597 1602 # B N B N cis
9253 2 1480 1597 1598 1593 # B N B N cis
9254 1 1480 1597 1598 1599 # B N B N trans
9255 2 1480 1597 1602 1601 # B N B N cis
9256 1 1480 1597 1602 1603 # B N B N trans
9257 1 1597 1480 1483 1482 # B N B N trans
9258 2 1597 1480 1483 1484 # B N B N cis
9259 1 1481 1486 1485 1490 # B N B N trans
9260 1 1481 1486 1487 1488 # B N B N trans
9261 2 1481 1486 1487 1484 # B N B N cis
9262 2 1486 1481 1482 1483 # B N B N cis
9263 2 1481 1482 1483 1484 # B N B N cis
9264 1 1482 1481 1486 1485 # B N B N trans
9265 2 1482 1481 1486 1487 # B N B N cis
9266 2 1482 1483 1484 1487 # B N B N cis
9267 1 1482 1483 1484 1601 # B N B N trans
9268 2 1483 1484 1487 1486 # B N B N cis
9269 1 1483 1484 1487 1488 # B N B N trans
9270 2 1483 1484 1601 1602 # B N B N cis
9271 1 1483 1484 1601 1606 # B N B N trans
9272 1 1484 1487 1486 1485 # B N B N trans
9273 1 1484 1487 1488 1491 # B N B N trans
9274 2 1484 1487 1488 1605 # B N B N cis
9275 1 1487 1484 1601 1602 # B N B N trans
9276 2 1487 1484 1601 1606 # B N B N cis
9277 2 1484 1601 1602 1597 # B N B N cis
9278 1 1484 1601 1602 1603 # B N B N trans
9279 2 1484 1601 1606 1605 # B N B N cis
9280 1 1484 1601 1606 1607 # B N B N trans
9281 1 1601 1484 1487 1486 # B N B N trans
9282 2 1601 1484 1487 1488 # B N B N cis
9283 1 1485 1490 1489 1494 # B N B N trans
9284 1 1485 1490 1491 1492 # B N B N trans
9285 2 1485 1490 1491 1488 # B N B N cis
9286 2 1490 1485 1486 1487 # B N B N cis
9287 2 1485 1486 1487 1488 # B N B N cis
9288 1 1486 1485 1490 1489 # B N B N trans
9289 2 1486 1485 1490 1491 # B N B N cis
9290 2 1486 1487 1488 1491 # B N B N cis
9291 1 1486 1487 1488 1605 # B N B N trans
9292 2 1487 1488 1491 1490 # B N B N cis
9293 1 1487 1488 1491 1492 # B N B N trans
9294 2 1487 1488 1605 1606 # B N B N cis
9295 1 1487 1488 1605 1610 # B N B N trans
9296 1 1488 1491 1490 1489 # B N B N trans
9297 1 1488 1491 1492 1495 # B N B N trans
9298 2 1488 1491 1492 1609 # B N B N cis
9299 1 1491 1488 1605 1606 # B N B N trans
9300 2 1491 1488 1605 1610 # B N B N cis
9301 2 1488 1605 1606 1601 # B N B N cis
9302 1 1488 1605 1606 1607 # B N B N trans
9303 2 1488 1605 1610 1609 # B N B N cis
9304 1 1488 1605 1610 1611 # B N B N trans
9305 1 1605 1488 1491 1490 # B N B N trans
9306 2 1605 1488 1491 1492 # B N B N cis
9307 1 1489 1494 1493 1498 # B N B N trans
9308 1 1489 1494 1495 1496 # B N B N trans
9309 2 1489 1494 1495 1492 # B N B N cis
9310 2 1494 1489 1490 1491 # B N B N cis
9311 2 1489 1490 1491 1492 # B N B N cis
9312 1 1490 1489 1494 1493 # B N B N trans
9313 2 1490 1489 1494 1495 # B N B N cis
9314 2 1490 1491 1492 1495 # B N B N cis
9315 1 1490 1491 1492 1609 # B N B N trans
9316 2 1491 1492 1495 1494 # B N B N cis
9317 1 1491 1492 1495 1496 # B N B N trans
9318 2 1491 1492 1609 1610 # B N B N cis
9319 1 1491 1492 1609 1614 # B N B N trans
9320 1 1492 1495 1494 1493 # B N B N trans
9321 1 1492 1495 1496 1499 # B N B N trans
9322 2 1492 1495 1496 1613 # B N B N cis
9323 1 1495 1492 1609 1610 # B N B N trans
9324 2 1495 1492 1609 1614 # B N B N cis
9325 2 1492 1609 1610 1605 # B N B N cis
9326 1 1492 1609 1610 1611 # B N B N trans
9327 2 1492 1609 1614 1613 # B N B N cis
9328 1 1492 1609 1614 1615 # B N B N trans
9329 1 1609 1492 1495 1494 # B N B N trans
9330 2 1609 1492 1495 1496 # B N B N cis
9331 1 1493 1498 1497 1502 # B N B N trans
9332 1 1493 1498 1499 1500 # B N B N trans
9333 2 1493 1498 1499 1496 # B N B N cis
9334 2 1498 1493 1494 1495 # B N B N cis
9335 2 1493 1494 1495 1496 # B N B N cis
9336 1 1494 1493 1498 1497 # B N B N trans
9337 2 1494 1493 1498 1499 # B N B N cis
9338 2 1494 1495 1496 1499 # B N B N cis
9339 1 1494 1495 1496 1613 # B N B N trans
9340 2 1495 1496 1499 1498 # B N B N cis
9341 1 1495 1496 1499 1500 # B N B N trans
9342 2 1495 1496 1613 1614 # B N B N cis
9343 1 1495 1496 1613 1618 # B N B N trans
9344 1 1496 1499 1498 1497 # B N B N trans
9345 1 1496 1499 1500 1503 # B N B N trans
9346 2 1496 1499 1500 1617 # B N B N cis
9347 1 1499 1496 1613 1614 # B N B N trans
9348 2 1499 1496 1613 1618 # B N B N cis
9349 2 1496 1613 1614 1609 # B N B N cis
9350 1 1496 1613 1614 1615 # B N B N trans
9351 2 1496 1613 1618 1617 # B N B N cis
9352 1 1496 1613 1618 1619 # B N B N trans
9353 1 1613 1496 1499 1498 # B N B N trans
9354 2 1613 1496 1499 1500 # B N B N cis
9355 1 1497 1502 1501 1506 # B N B N trans
9356 1 1497 1502 1503 1504 # B N B N trans
9357 2 1497 1502 1503 1500 # B N B N cis
9358 2 1502 1497 1498 1499 # B N B N cis
9359 2 1497 1498 1499 1500 # B N B N cis
9360 1 1498 1497 1502 1501 # B N B N trans
9361 2 1498 1497 1502 1503 # B N B N cis
9362 2 1498 1499 1500 1503 # B N B N cis
9363 1 1498 1499 1500 1617 # B N B N trans
9364 2 1499 1500 1503 1502 # B N B N cis
9365 1 1499 1500 1503 1504 # B N B N trans
9366 2 1499 1500 1617 1618 # B N B N cis
9367 1 1499 1500 1617 1622 # B N B N trans
9368 1 1500 1503 1502 1501 # B N B N trans
9369 1 1500 1503 1504 1507 # B N B N trans
9370 2 1500 1503 1504 1621 # B N B N cis
9371 1 1503 1500 1617 1618 # B N B N trans
9372 2 1503 1500 1617 1622 # B N B N cis
9373 2 1500 1617 1618 1613 # B N B N cis
9374 1 1500 1617 1618 1619 # B N B N trans
9375 2 1500 1617 1622 1621 # B N B N cis
9376 1 1500 1617 1622 1623 # B N B N trans
9377 1 1617 1500 1503 1502 # B N B N trans
9378 2 1617 1500 1503 1504 # B N B N cis
9379 1 1501 1506 1505 1510 # B N B N trans
9380 1 1501 1506 1507 1508 # B N B N trans
9381 2 1501 1506 1507 1504 # B N B N cis
9382 2 1506 1501 1502 1503 # B N B N cis
9383 2 1501 1502 1503 1504 # B N B N cis
9384 1 1502 1501 1506 1505 # B N B N trans
9385 2 1502 1501 1506 1507 # B N B N cis
9386 2 1502 1503 1504 1507 # B N B N cis
9387 1 1502 1503 1504 1621 # B N B N trans
9388 2 1503 1504 1507 1506 # B N B N cis
9389 1 1503 1504 1507 1508 # B N B N trans
9390 2 1503 1504 1621 1622 # B N B N cis
9391 1 1503 1504 1621 1626 # B N B N trans
9392 1 1504 1507 1506 1505 # B N B N trans
9393 1 1504 1507 1508 1511 # B N B N trans
9394 2 1504 1507 1508 1625 # B N B N cis
9395 1 1507 1504 1621 1622 # B N B N trans
9396 2 1507 1504 1621 1626 # B N B N cis
9397 2 1504 1621 1622 1617 # B N B N cis
9398 1 1504 1621 1622 1623 # B N B N trans
9399 2 1504 1621 1626 1625 # B N B N cis
9400 1 1504 1621 1626 1627 # B N B N trans
9401 1 1621 1504 1507 1506 # B N B N trans
9402 2 1621 1504 1507 1508 # B N B N cis
9403 1 1505 1510 1509 1514 # B N B N trans
9404 1 1505 1510 1511 1512 # B N B N trans
9405 2 1505 1510 1511 1508 # B N B N cis
9406 2 1510 1505 1506 1507 # B N B N cis
9407 2 1505 1506 1507 1508 # B N B N cis
9408 1 1506 1505 1510 1509 # B N B N trans
9409 2 1506 1505 1510 1511 # B N B N cis
9410 2 1506 1507 1508 1511 # B N B N cis
9411 1 1506 1507 1508 1625 # B N B N trans
9412 2 1507 1508 1511 1510 # B N B N cis
9413 1 1507 1508 1511 1512 # B N B N trans
9414 2 1507 1508 1625 1626 # B N B N cis
9415 1 1507 1508 1625 1630 # B N B N trans
9416 1 1508 1511 1510 1509 # B N B N trans
9417 1 1508 1511 1512 1515 # B N B N trans
9418 2 1508 1511 1512 1629 # B N B N cis
9419 1 1511 1508 1625 1626 # B N B N trans
9420 2 1511 1508 1625 1630 # B N B N cis
9421 2 1508 1625 1626 1621 # B N B N cis
9422 1 1508 1625 1626 1627 # B N B N trans
9423 2 1508 1625 1630 1629 # B N B N cis
9424 1 1508 1625 1630 1631 # B N B N trans
9425 1 1625 1508 1511 1510 # B N B N trans
9426 2 1625 1508 1511 1512 # B N B N cis
9427 1 1509 1514 1513 1518 # B N B N trans
9428 1 1509 1514 1515 1516 # B N B N trans
9429 2 1509 1514 1515 1512 # B N B N cis
9430 2 1514 1509 1510 1511 # B N B N cis
9431 2 1509 1510 1511 1512 # B N B N cis
9432 1 1510 1509 1514 1513 # B N B N trans
9433 2 1510 1509 1514 1515 # B N B N cis
9434 2 1510 1511 1512 1515 # B N B N cis
9435 1 1510 1511 1512 1629 # B N B N trans
9436 2 1511 1512 1515 1514 # B N B N cis
9437 1 1511 1512 1515 1516 # B N B N trans
9438 2 1511 1512 1629 1630 # B N B N cis
9439 1 1511 1512 1629 1634 # B N B N trans
9440 1 1512 1515 1514 1513 # B N B N trans
9441 1 1512 1515 1516 1519 # B N B N trans
9442 2 1512 1515 1516 1633 # B N B N cis
9443 1 1515 1512 1629 1630 # B N B N trans
9444 2 1515 1512 1629 1634 # B N B N cis
9445 2 1512 1629 1630 1625 # B N B N cis
9446 1 1512 1629 1630 1631 # B N B N trans
9447 2 1512 1629 1634 1633 # B N B N cis
9448 1 1512 1629 1634 1635 # B N B N trans
9449 1 1629 1512 1515 1514 # B N B N trans
9450 2 1629 1512 1515 1516 # B N B N cis
9451 1 1513 1518 1517 1522 # B N B N trans
9452 1 1513 1518 1519 1520 # B N B N trans
9453 2 1513 1518 1519 1516 # B N B N cis
9454 2 1518 1513 1514 1515 # B N B N cis
9455 2 1513 1514 1515 1516 # B N B N cis
9456 1 1514 1513 1518 1517 # B N B N trans
9457 2 1514 1513 1518 1519 # B N B N cis
9458 2 1514 1515 1516 1519 # B N B N cis
9459 1 1514 1515 1516 1633 # B N B N trans
9460 2 1515 1516 1519 1518 # B N B N cis
9461 1 1515 1516 1519 1520 # B N B N trans
9462 2 1515 1516 1633 1634 # B N B N cis
9463 1 1515 1516 1633 1638 # B N B N trans
9464 1 1516 1519 1518 1517 # B N B N trans
9465 1 1516 1519 1520 1523 # B N B N trans
9466 2 1516 1519 1520 1637 # B N B N cis
9467 1 1519 1516 1633 1634 # B N B N trans
9468 2 1519 1516 1633 1638 # B N B N cis
9469 2 1516 1633 1634 1629 # B N B N cis
9470 1 1516 1633 1634 1635 # B N B N trans
9471 2 1516 1633 1638 1637 # B N B N cis
9472 1 1516 1633 1638 1639 # B N B N trans
9473 1 1633 1516 1519 1518 # B N B N trans
9474 2 1633 1516 1519 1520 # B N B N cis
9475 1 1517 1522 1521 1526 # B N B N trans
9476 1 1517 1522 1523 1524 # B N B N trans
9477 2 1517 1522 1523 1520 # B N B N cis
9478 2 1522 1517 1518 1519 # B N B N cis
9479 2 1517 1518 1519 1520 # B N B N cis
9480 1 1518 1517 1522 1521 # B N B N trans
9481 2 1518 1517 1522 1523 # B N B N cis
9482 2 1518 1519 1520 1523 # B N B N cis
9483 1 1518 1519 1520 1637 # B N B N trans
9484 2 1519 1520 1523 1522 # B N B N cis
9485 1 1519 1520 1523 1524 # B N B N trans
9486 2 1519 1520 1637 1638 # B N B N cis
9487 1 1519 1520 1637 1642 # B N B N trans
9488 1 1520 1523 1522 1521 # B N B N trans
9489 1 1520 1523 1524 1527 # B N B N trans
9490 2 1520 1523 1524 1641 # B N B N cis
9491 1 1523 1520 1637 1638 # B N B N trans
9492 2 1523 1520 1637 1642 # B N B N cis
9493 2 1520 1637 1638 1633 # B N B N cis
9494 1 1520 1637 1638 1639 # B N B N trans
9495 2 1520 1637 1642 1641 # B N B N cis
9496 1 1520 1637 1642 1643 # B N B N trans
9497 1 1637 1520 1523 1522 # B N B N trans
9498 2 1637 1520 1523 1524 # B N B N cis
9499 1 1521 1526 1525 1530 # B N B N trans
9500 1 1521 1526 1527 1528 # B N B N trans
9501 2 1521 1526 1527 1524 # B N B N cis
9502 2 1526 1521 1522 1523 # B N B N cis
9503 2 1521 1522 1523 1524 # B N B N cis
9504 1 1522 1521 1526 1525 # B N B N trans
9505 2 1522 1521 1526 1527 # B N B N cis
9506 2 1522 1523 1524 1527 # B N B N cis
9507 1 1522 1523 1524 1641 # B N B N trans
9508 2 1523 1524 1527 1526 # B N B N cis
9509 1 1523 1524 1527 1528 # B N B N trans
9510 2 1523 1524 1641 1642 # B N B N cis
9511 1 1523 1524 1641 1646 # B N B N trans
9512 1 1524 1527 1526 1525 # B N B N trans
9513 1 1524 1527 1528 1531 # B N B N trans
9514 2 1524 1527 1528 1645 # B N B N cis
9515 1 1527 1524 1641 1642 # B N B N trans
9516 2 1527 1524 1641 1646 # B N B N cis
9517 2 1524 1641 1642 1637 # B N B N cis
9518 1 1524 1641 1642 1643 # B N B N trans
9519 2 1524 1641 1646 1645 # B N B N cis
9520 1 1524 1641 1646 1647 # B N B N trans
9521 1 1641 1524 1527 1526 # B N B N trans
9522 2 1641 1524 1527 1528 # B N B N cis
9523 1 1525 1530 1529 1534 # B N B N trans
9524 1 1525 1530 1531 1532 # B N B N trans
9525 2 1525 1530 1531 1528 # B N B N cis
9526 2 1530 1525 1526 1527 # B N B N cis
9527 2 1525 1526 1527 1528 # B N B N cis
9528 1 1526 1525 1530 1529 # B N B N trans
9529 2 1526 1525 1530 1531 # B N B N cis
9530 2 1526 1527 1528 1531 # B N B N cis
9531 1 1526 1527 1528 1645 # B N B N trans
9532 2 1527 1528 1531 1530 # B N B N cis
9533 1 1527 1528 1531 1532 # B N B N trans
9534 2 1527 1528 1645 1646 # B N B N cis
9535 1 1527 1528 1645 1650 # B N B N trans
9536 1 1528 1531 1530 1529 # B N B N trans
9537 1 1528 1531 1532 1535 # B N B N trans
9538 2 1528 1531 1532 1649 # B N B N cis
9539 1 1531 1528 1645 1646 # B N B N trans
9540 2 1531 1528 1645 1650 # B N B N cis
9541 2 1528 1645 1646 1641 # B N B N cis
9542 1 1528 1645 1646 1647 # B N B N trans
9543 2 1528 1645 1650 1649 # B N B N cis
9544 1 1528 1645 1650 1651 # B N B N trans
9545 1 1645 1528 1531 1530 # B N B N trans
9546 2 1645 1528 1531 1532 # B N B N cis
9547 1 1529 1534 1533 1538 # B N B N trans
9548 1 1529 1534 1535 1536 # B N B N trans
9549 2 1529 1534 1535 1532 # B N B N cis
9550 2 1534 1529 1530 1531 # B N B N cis
9551 2 1529 1530 1531 1532 # B N B N cis
9552 1 1530 1529 1534 1533 # B N B N trans
9553 2 1530 1529 1534 1535 # B N B N cis
9554 2 1530 1531 1532 1535 # B N B N cis
9555 1 1530 1531 1532 1649 # B N B N trans
9556 2 1531 1532 1535 1534 # B N B N cis
9557 1 1531 1532 1535 1536 # B N B N trans
9558 2 1531 1532 1649 1650 # B N B N cis
9559 1 1531 1532 1649 1654 # B N B N trans
9560 1 1532 1535 1534 1533 # B N B N trans
9561 1 1532 1535 1536 1539 # B N B N trans
9562 2 1532 1535 1536 1653 # B N B N cis
9563 1 1535 1532 1649 1650 # B N B N trans
9564 2 1535 1532 1649 1654 # B N B N cis
9565 2 1532 1649 1650 1645 # B N B N cis
9566 1 1532 1649 1650 1651 # B N B N trans
9567 2 1532 1649 1654 1653 # B N B N cis
9568 1 1532 1649 1654 1655 # B N B N trans
9569 1 1649 1532 1535 1534 # B N B N trans
9570 2 1649 1532 1535 1536 # B N B N cis
9571 1 1533 1538 1537 1542 # B N B N trans
9572 1 1533 1538 1539 1540 # B N B N trans
9573 2 1533 1538 1539 1536 # B N B N cis
9574 2 1538 1533 1534 1535 # B N B N cis
9575 2 1533 1534 1535 1536 # B N B N cis
9576 1 1534 1533 1538 1537 # B N B N trans
9577 2 1534 1533 1538 1539 # B N B N cis
9578 2 1534 1535 1536 1539 # B N B N cis
9579 1 1534 1535 1536 1653 # B N B N trans
9580 2 1535 1536 1539 1538 # B N B N cis
9581 1 1535 1536 1539 1540 # B N B N trans
9582 2 1535 1536 1653 1654 # B N B N cis
9583 1 1535 1536 1653 1658 # B N B N trans
9584 1 1536 1539 1538 1537 # B N B N trans
9585 1 1536 1539 1540 1543 # B N B N trans
9586 2 1536 1539 1540 1657 # B N B N cis
9587 1 1539 1536 1653 1654 # B N B N trans
9588 2 1539 1536 1653 1658 # B N B N cis
9589 2 1536 1653 1654 1649 # B N B N cis
9590 1 1536 1653 1654 1655 # B N B N trans
9591 2 1536 1653 1658 1657 # B N B N cis
9592 1 1536 1653 1658 1659 # B N B N trans
9593 1 1653 1536 1539 1538 # B N B N trans
9594 2 1653 1536 1539 1540 # B N B N cis
9595 1 1537 1542 1541 1546 # B N B N trans
9596 1 1537 1542 1543 1544 # B N B N trans
9597 2 1537 1542 1543 1540 # B N B N cis
9598 2 1542 1537 1538 1539 # B N B N cis
9599 2 1537 1538 1539 1540 # B N B N cis
9600 1 1538 1537 1542 1541 # B N B N trans
9601 2 1538 1537 1542 1543 # B N B N cis
9602 2 1538 1539 1540 1543 # B N B N cis
9603 1 1538 1539 1540 1657 # B N B N trans
9604 2 1539 1540 1543 1542 # B N B N cis
9605 1 1539 1540 1543 1544 # B N B N trans
9606 2 1539 1540 1657 1658 # B N B N cis
9607 1 1539 1540 1657 1662 # B N B N trans
9608 1 1540 1543 1542 1541 # B N B N trans
9609 1 1540 1543 1544 1547 # B N B N trans
9610 2 1540 1543 1544 1661 # B N B N cis
9611 1 1543 1540 1657 1658 # B N B N trans
9612 2 1543 1540 1657 1662 # B N B N cis
9613 2 1540 1657 1658 1653 # B N B N cis
9614 1 1540 1657 1658 1659 # B N B N trans
9615 2 1540 1657 1662 1661 # B N B N cis
9616 1 1540 1657 1662 1663 # B N B N trans
9617 1 1657 1540 1543 1542 # B N B N trans
9618 2 1657 1540 1543 1544 # B N B N cis
9619 1 1541 1546 1545 1550 # B N B N trans
9620 1 1541 1546 1547 1548 # B N B N trans
9621 2 1541 1546 1547 1544 # B N B N cis
9622 2 1546 1541 1542 1543 # B N B N cis
9623 2 1541 1542 1543 1544 # B N B N cis
9624 1 1542 1541 1546 1545 # B N B N trans
9625 2 1542 1541 1546 1547 # B N B N cis
9626 2 1542 1543 1544 1547 # B N B N cis
9627 1 1542 1543 1544 1661 # B N B N trans
9628 2 1543 1544 1547 1546 # B N B N cis
9629 1 1543 1544 1547 1548 # B N B N trans
9630 2 1543 1544 1661 1662 # B N B N cis
9631 1 1543 1544 1661 1666 # B N B N trans
9632 1 1544 1547 1546 1545 # B N B N trans
9633 1 1544 1547 1548 1551 # B N B N trans
9634 2 1544 1547 1548 1665 # B N B N cis
9635 1 1547 1544 1661 1662 # B N B N trans
9636 2 1547 1544 1661 1666 # B N B N cis
9637 2 1544 1661 1662 1657 # B N B N cis
9638 1 1544 1661 1662 1663 # B N B N trans
9639 2 1544 1661 1666 1665 # B N B N cis
9640 1 1544 1661 1666 1667 # B N B N trans
9641 1 1661 1544 1547 1546 # B N B N trans
9642 2 1661 1544 1547 1548 # B N B N cis
9643 1 1545 1550 1549 1554 # B N B N trans
9644 1 1545 1550 1551 1552 # B N B N trans
9645 2 1545 1550 1551 1548 # B N B N cis
9646 2 1550 1545 1546 1547 # B N B N cis
9647 2 1545 1546 1547 1548 # B N B N cis
9648 1 1546 1545 1550 1549 # B N B N trans
9649 2 1546 1545 1550 1551 # B N B N cis
9650 2 1546 1547 1548 1551 # B N B N cis
9651 1 1546 1547 1548 1665 # B N B N trans
9652 2 1547 1548 1551 1550 # B N B N cis
9653 1 1547 1548 1551 1552 # B N B N trans
9654 2 1547 1548 1665 1666 # B N B N cis
9655 1 1547 1548 1665 1670 # B N B N trans
9656 1 1548 1551 1550 1549 # B N B N trans
9657 1 1548 1551 1552 1555 # B N B N trans
9658 2 1548 1551 1552 1669 # B N B N cis
9659 1 1551 1548 1665 1666 # B N B N trans
9660 2 1551 1548 1665 1670 # B N B N cis
9661 2 1548 1665 1666 1661 # B N B N cis
9662 1 1548 1665 1666 1667 # B N B N trans
9663 2 1548 1665 1670 1669 # B N B N cis
9664 1 1548 1665 1670 1671 # B N B N trans
9665 1 1665 1548 1551 1550 # B N B N trans
9666 2 1665 1548 1551 1552 # B N B N cis
9667 1 1549 1554 1553 1558 # B N B N trans
9668 1 1549 1554 1555 1556 # B N B N trans
9669 2 1549 1554 1555 1552 # B N B N cis
9670 2 1554 1549 1550 1551 # B N B N cis
9671 2 1549 1550 1551 1552 # B N B N cis
9672 1 1550 1549 1554 1553 # B N B N trans
9673 2 1550 1549 1554 1555 # B N B N cis
9674 2 1550 1551 1552 1555 # B N B N cis
9675 1 1550 1551 1552 1669 # B N B N trans
9676 2 1551 1552 1555 1554 # B N B N cis
9677 1 1551 1552 1555 1556 # B N B N trans
9678 2 1551 1552 1669 1670 # B N B N cis
9679 1 1551 1552 1669 1674 # B N B N trans
9680 1 1552 1555 1554 1553 # B N B N trans
9681 1 1552 1555 1556 1559 # B N B N trans
9682 2 1552 1555 1556 1673 # B N B N cis
9683 1 1555 1552 1669 1670 # B N B N trans
9684 2 1555 1552 1669 1674 # B N B N cis
9685 2 1552 1669 1670 1665 # B N B N cis
9686 1 1552 1669 1670 1671 # B N B N trans
9687 2 1552 1669 1674 1673 # B N B N cis
9688 1 1552 1669 1674 1675 # B N B N trans
9689 1 1669 1552 1555 1554 # B N B N trans
9690 2 1669 1552 1555 1556 # B N B N cis
9691 1 1553 1558 1559 1560 # B N B N trans
9692 2 1553 1558 1559 1556 # B N B N cis
9693 2 1558 1553 1554 1555 # B N B N cis
9694 2 1553 1554 1555 1556 # B N B N cis
9695 1 1554 1553 1558 1557 # B N B N trans
9696 2 1554 1553 1558 1559 # B N B N cis
9697 2 1554 1555 1556 1559 # B N B N cis
9698 1 1554 1555 1556 1673 # B N B N trans
9699 2 1555 1556 1559 1558 # B N B N cis
9700 1 1555 1556 1559 1560 # B N B N trans
9701 2 1555 1556 1673 1674 # B N B N cis
9702 1 1555 1556 1673 1678 # B N B N trans
9703 1 1556 1559 1558 1557 # B N B N trans
9704 2 1556 1559 1560 1677 # B N B N cis
9705 1 1559 1556 1673 1674 # B N B N trans
9706 2 1559 1556 1673 1678 # B N B N cis
9707 2 1556 1673 1674 1669 # B N B N cis
9708 1 1556 1673 1674 1675 # B N B N trans
9709 2 1556 1673 1678 1677 # B N B N cis
9710 1 1556 1673 1678 1679 # B N B N trans
9711 1 1673 1556 1559 1558 # B N B N trans
9712 2 1673 1556 1559 1560 # B N B N cis
9713 2 1557 1558 1559 1560 # B N B N cis
9714 1 1558 1559 1560 1677 # B N B N trans
9715 2 1559 1560 1677 1678 # B N B N cis
9716 1 1559 1560 1677 1562 # B N B N trans
9717 2 1560 1677 1678 1673 # B N B N cis
9718 1 1560 1677 1678 1679 # B N B N trans
9719 2 1560 1677 1562 1561 # B N B N cis
9720 1 1560 1677 1562 1563 # B N B N trans
9721 2 1561 1562 1563 1564 # B N B N cis
9722 1 1561 1562 1563 1680 # B N B N trans
9723 1 1561 1562 1677 1678 # B N B N trans
9724 1 1562 1561 1566 1565 # B N B N trans
9725 2 1562 1561 1566 1567 # B N B N cis
9726 1 1561 1566 1565 1570 # B N B N trans
9727 1 1561 1566 1567 1568 # B N B N trans
9728 2 1561 1566 1567 1564 # B N B N cis
9729 2 1566 1561 1562 1563 # B N B N cis
9730 1 1566 1561 1562 1677 # B N B N trans
9731 2 1562 1563 1564 1567 # B N B N cis
9732 1 1562 1563 1564 1681 # B N B N trans
9733 2 1562 1563 1680 1679 # B N B N cis
9734 1 1562 1563 1680 1797 # B N B N trans
9735 2 1563 1562 1677 1678 # B N B N cis
9736 1 1562 1677 1678 1673 # B N B N trans
9737 2 1562 1677 1678 1679 # B N B N cis
9738 1 1677 1562 1563 1564 # B N B N trans
9739 2 1677 1562 1563 1680 # B N B N cis
9740 2 1563 1564 1567 1566 # B N B N cis
9741 1 1563 1564 1567 1568 # B N B N trans
9742 2 1563 1564 1681 1682 # B N B N cis
9743 1 1563 1564 1681 1686 # B N B N trans
9744 1 1564 1563 1680 1679 # B N B N trans
9745 2 1564 1563 1680 1797 # B N B N cis
9746 2 1563 1680 1679 1678 # B N B N cis
9747 1 1563 1680 1679 1676 # B N B N trans
9748 1 1563 1680 1797 1798 # B N B N trans
9749 2 1563 1680 1797 1682 # B N B N cis
9750 1 1680 1563 1564 1567 # B N B N trans
9751 2 1680 1563 1564 1681 # B N B N cis
9752 1 1564 1567 1566 1565 # B N B N trans
9753 1 1564 1567 1568 1571 # B N B N trans
9754 2 1564 1567 1568 1685 # B N B N cis
9755 1 1567 1564 1681 1682 # B N B N trans
9756 2 1567 1564 1681 1686 # B N B N cis
9757 1 1564 1681 1682 1683 # B N B N trans
9758 2 1564 1681 1682 1797 # B N B N cis
9759 2 1564 1681 1686 1685 # B N B N cis
9760 1 1564 1681 1686 1687 # B N B N trans
9761 1 1681 1564 1567 1566 # B N B N trans
9762 2 1681 1564 1567 1568 # B N B N cis
9763 2 1565 1566 1567 1568 # B N B N cis
9764 1 1566 1565 1570 1569 # B N B N trans
9765 2 1566 1565 1570 1571 # B N B N cis
9766 1 1565 1570 1569 1574 # B N B N trans
9767 1 1565 1570 1571 1572 # B N B N trans
9768 2 1565 1570 1571 1568 # B N B N cis
9769 2 1570 1565 1566 1567 # B N B N cis
9770 2 1566 1567 1568 1571 # B N B N cis
9771 1 1566 1567 1568 1685 # B N B N trans
9772 2 1567 1568 1571 1570 # B N B N cis
9773 1 1567 1568 1571 1572 # B N B N trans
9774 2 1567 1568 1685 1686 # B N B N cis
9775 1 1567 1568 1685 1690 # B N B N trans
9776 1 1568 1571 1570 1569 # B N B N trans
9777 1 1568 1571 1572 1575 # B N B N trans
9778 2 1568 1571 1572 1689 # B N B N cis
9779 1 1571 1568 1685 1686 # B N B N trans
9780 2 1571 1568 1685 1690 # B N B N cis
9781 2 1568 1685 1686 1681 # B N B N cis
9782 1 1568 1685 1686 1687 # B N B N trans
9783 2 1568 1685 1690 1689 # B N B N cis
9784 1 1568 1685 1690 1691 # B N B N trans
9785 1 1685 1568 1571 1570 # B N B N trans
9786 2 1685 1568 1571 1572 # B N B N cis
9787 2 1569 1570 1571 1572 # B N B N cis
9788 1 1570 1569 1574 1573 # B N B N trans
9789 2 1570 1569 1574 1575 # B N B N cis
9790 1 1569 1574 1573 1578 # B N B N trans
9791 1 1569 1574 1575 1576 # B N B N trans
9792 2 1569 1574 1575 1572 # B N B N cis
9793 2 1574 1569 1570 1571 # B N B N cis
9794 2 1570 1571 1572 1575 # B N B N cis
9795 1 1570 1571 1572 1689 # B N B N trans
9796 2 1571 1572 1575 1574 # B N B N cis
9797 1 1571 1572 1575 1576 # B N B N trans
9798 2 1571 1572 1689 1690 # B N B N cis
9799 1 1571 1572 1689 1694 # B N B N trans
9800 1 1572 1575 1574 1573 # B N B N trans
9801 1 1572 1575 1576 1579 # B N B N trans
9802 2 1572 1575 1576 1693 # B N B N cis
9803 1 1575 1572 1689 1690 # B N B N trans
9804 2 1575 1572 1689 1694 # B N B N cis
9805 2 1572 1689 1690 1685 # B N B N cis
9806 1 1572 1689 1690 1691 # B N B N trans
9807 2 1572 1689 1694 1693 # B N B N cis
9808 1 1572 1689 1694 1695 # B N B N trans
9809 1 1689 1572 1575 1574 # B N B N trans
9810 2 1689 1572 1575 1576 # B N B N cis
9811 2 1573 1574 1575 1576 # B N B N cis
9812 1 1574 1573 1578 1577 # B N B N trans
9813 2 1574 1573 1578 1579 # B N B N cis
9814 1 1573 1578 1577 1582 # B N B N trans
9815 1 1573 1578 1579 1580 # B N B N trans
9816 2 1573 1578 1579 1576 # B N B N cis
9817 2 1578 1573 1574 1575 # B N B N cis
9818 2 1574 1575 1576 1579 # B N B N cis
9819 1 1574 1575 1576 1693 # B N B N trans
9820 2 1575 1576 1579 1578 # B N B N cis
9821 1 1575 1576 1579 1580 # B N B N trans
9822 2 1575 1576 1693 1694 # B N B N cis
9823 1 1575 1576 1693 1698 # B N B N trans
9824 1 1576 1579 1578 1577 # B N B N trans
9825 1 1576 1579 1580 1583 # B N B N trans
9826 2 1576 1579 1580 1697 # B N B N cis
9827 1 1579 1576 1693 1694 # B N B N trans
9828 2 1579 1576 1693 1698 # B N B N cis
9829 2 1576 1693 1694 1689 # B N B N cis
9830 1 1576 1693 1694 1695 # B N B N trans
9831 2 1576 1693 1698 1697 # B N B N cis
9832 1 1576 1693 1698 1699 # B N B N trans
9833 1 1693 1576 1579 1578 # B N B N trans
9834 2 1693 1576 1579 1580 # B N B N cis
9835 2 1577 1578 1579 1580 # B N B N cis
9836 1 1578 1577 1582 1581 # B N B N trans
9837 2 1578 1577 1582 1583 # B N B N cis
9838 1 1577 1582 1581 1586 # B N B N trans
9839 1 1577 1582 1583 1584 # B N B N trans
9840 2 1577 1582 1583 1580 # B N B N cis
9841 2 1582 1577 1578 1579 # B N B N cis
9842 2 1578 1579 1580 1583 # B N B N cis
9843 1 1578 1579 1580 1697 # B N B N trans
9844 2 1579 1580 1583 1582 # B N B N cis
9845 1 1579 1580 1583 1584 # B N B N trans
9846 2 1579 1580 1697 1698 # B N B N cis
9847 1 1579 1580 1697 1702 # B N B N trans
9848 1 1580 1583 1582 1581 # B N B N trans
9849 1 1580 1583 1584 1587 # B N B N trans
9850 2 1580 1583 1584 1701 # B N B N cis
9851 1 1583 1580 1697 1698 # B N B N trans
9852 2 1583 1580 1697 1702 # B N B N cis
9853 2 1580 1697 1698 1693 # B N B N cis
9854 1 1580 1697 1698 1699 # B N B N trans
9855 2 1580 1697 1702 1701 # B N B N cis
9856 1 1580 1697 1702 1703 # B N B N trans
9857 1 1697 1580 1583 1582 # B N B N trans
9858 2 1697 1580 1583 1584 # B N B N cis
9859 2 1581 1582 1583 1584 # B N B N cis
9860 1 1582 1581 1586 1585 # B N B N trans
9861 2 1582 1581 1586 1587 # B N B N cis
9862 1 1581 1586 1585 1590 # B N B N trans
9863 1 1581 1586 1587 1588 # B N B N trans
9864 2 1581 1586 1587 1584 # B N B N cis
9865 2 1586 1581 1582 1583 # B N B N cis
9866 2 1582 1583 1584 1587 # B N B N cis
9867 1 1582 1583 1584 1701 # B N B N trans
9868 2 1583 1584 1587 1586 # B N B N cis
9869 1 1583 1584 1587 1588 # B N B N trans
9870 2 1583 1584 1701 1702 # B N B N cis
9871 1 1583 1584 1701 1706 # B N B N trans
9872 1 1584 1587 1586 1585 # B N B N trans
9873 1 1584 1587 1588 1591 # B N B N trans
9874 2 1584 1587 1588 1705 # B N B N cis
9875 1 1587 1584 1701 1702 # B N B N trans
9876 2 1587 1584 1701 1706 # B N B N cis
9877 2 1584 1701 1702 1697 # B N B N cis
9878 1 1584 1701 1702 1703 # B N B N trans
9879 2 1584 1701 1706 1705 # B N B N cis
9880 1 1584 1701 1706 1707 # B N B N trans
9881 1 1701 1584 1587 1586 # B N B N trans
9882 2 1701 1584 1587 1588 # B N B N cis
9883 2 1585 1586 1587 1588 # B N B N cis
9884 1 1586 1585 1590 1589 # B N B N trans
9885 2 1586 1585 1590 1591 # B N B N cis
9886 1 1585 1590 1589 1594 # B N B N trans
9887 1 1585 1590 1591 1592 # B N B N trans
9888 2 1585 1590 1591 1588 # B N B N cis
9889 2 1590 1585 1586 1587 # B N B N cis
9890 2 1586 1587 1588 1591 # B N B N cis
9891 1 1586 1587 1588 1705 # B N B N trans
9892 2 1587 1588 1591 1590 # B N B N cis
9893 1 1587 1588 1591 1592 # B N B N trans
9894 2 1587 1588 1705 1706 # B N B N cis
9895 1 1587 1588 1705 1710 # B N B N trans
9896 1 1588 1591 1590 1589 # B N B N trans
9897 1 1588 1591 1592 1595 # B N B N trans
9898 2 1588 1591 1592 1709 # B N B N cis
9899 1 1591 1588 1705 1706 # B N B N trans
9900 2 1591 1588 1705 1710 # B N B N cis
9901 2 1588 1705 1706 1701 # B N B N cis
9902 1 1588 1705 1706 1707 # B N B N trans
9903 2 1588 1705 1710 1709 # B N B N cis
9904 1 1588 1705 1710 1711 # B N B N trans
9905 1 1705 1588 1591 1590 # B N B N trans
9906 2 1705 1588 1591 1592 # B N B N cis
9907 2 1589 1590 1591 1592 # B N B N cis
9908 1 1590 1589 1594 1593 # B N B N trans
9909 2 1590 1589 1594 1595 # B N B N cis
9910 1 1589 1594 1593 1598 # B N B N trans
9911 1 1589 1594 1595 1596 # B N B N trans
9912 2 1589 1594 1595 1592 # B N B N cis
9913 2 1594 1589 1590 1591 # B N B N cis
9914 2 1590 1591 1592 1595 # B N B N cis
9915 1 1590 1591 1592 1709 # B N B N trans
9916 2 1591 1592 1595 1594 # B N B N cis
9917 1 1591 1592 1595 1596 # B N B N trans
9918 2 1591 1592 1709 1710 # B N B N cis
9919 1 1591 1592 1709 1714 # B N B N trans
9920 1 1592 1595 1594 1593 # B N B N trans
9921 1 1592 1595 1596 1599 # B N B N trans
9922 2 1592 1595 1596 1713 # B N B N cis
9923 1 1595 1592 1709 1710 # B N B N trans
9924 2 1595 1592 1709 1714 # B N B N cis
9925 2 1592 1709 1710 1705 # B N B N cis
9926 1 1592 1709 1710 1711 # B N B N trans
9927 2 1592 1709 1714 1713 # B N B N cis
9928 1 1592 1709 1714 1715 # B N B N trans
9929 1 1709 1592 1595 1594 # B N B N trans
9930 2 1709 1592 1595 1596 # B N B N cis
9931 2 1593 1594 1595 1596 # B N B N cis
9932 1 1594 1593 1598 1597 # B N B N trans
9933 2 1594 1593 1598 1599 # B N B N cis
9934 1 1593 1598 1597 1602 # B N B N trans
9935 1 1593 1598 1599 1600 # B N B N trans
9936 2 1593 1598 1599 1596 # B N B N cis
9937 2 1598 1593 1594 1595 # B N B N cis
9938 2 1594 1595 1596 1599 # B N B N cis
9939 1 1594 1595 1596 1713 # B N B N trans
9940 2 1595 1596 1599 1598 # B N B N cis
9941 1 1595 1596 1599 1600 # B N B N trans
9942 2 1595 1596 1713 1714 # B N B N cis
9943 1 1595 1596 1713 1718 # B N B N trans
9944 1 1596 1599 1598 1597 # B N B N trans
9945 1 1596 1599 1600 1603 # B N B N trans
9946 2 1596 1599 1600 1717 # B N B N cis
9947 1 1599 1596 1713 1714 # B N B N trans
9948 2 1599 1596 1713 1718 # B N B N cis
9949 2 1596 1713 1714 1709 # B N B N cis
9950 1 1596 1713 1714 1715 # B N B N trans
9951 2 1596 1713 1718 1717 # B N B N cis
9952 1 1596 1713 1718 1719 # B N B N trans
9953 1 1713 1596 1599 1598 # B N B N trans
9954 2 1713 1596 1599 1600 # B N B N cis
9955 2 1597 1598 1599 1600 # B N B N cis
9956 1 1598 1597 1602 1601 # B N B N trans
9957 2 1598 1597 1602 1603 # B N B N cis
9958 1 1597 1602 1601 1606 # B N B N trans
9959 1 1597 1602 1603 1604 # B N B N trans
9960 2 1597 1602 1603 1600 # B N B N cis
9961 2 1602 1597 1598 1599 # B N B N cis
9962 2 1598 1599 1600 1603 # B N B N cis
9963 1 1598 1599 1600 1717 # B N B N trans
9964 2 1599 1600 1603 1602 # B N B N cis
9965 1 1599 1600 1603 1604 # B N B N trans
9966 2 1599 1600 1717 1718 # B N B N cis
9967 1 1599 1600 1717 1722 # B N B N trans
9968 1 1600 1603 1602 1601 # B N B N trans
9969 1 1600 1603 1604 1607 # B N B N trans
9970 2 1600 1603 1604 1721 # B N B N cis
9971 1 1603 1600 1717 1718 # B N B N trans
9972 2 1603 1600 1717 1722 # B N B N cis
9973 2 1600 1717 1718 1713 # B N B N cis
9974 1 1600 1717 1718 1719 # B N B N trans
9975 2 1600 1717 1722 1721 # B N B N cis
9976 1 1600 1717 1722 1723 # B N B N trans
9977 1 1717 1600 1603 1602 # B N B N trans
9978 2 1717 1600 1603 1604 # B N B N cis
9979 2 1601 1602 1603 1604 # B N B N cis
9980 1 1602 1601 1606 1605 # B N B N trans
9981 2 1602 1601 1606 1607 # B N B N cis
9982 1 1601 1606 1605 1610 # B N B N trans
9983 1 1601 1606 1607 1608 # B N B N trans
9984 2 1601 1606 1607 1604 # B N B N cis
9985 2 1606 1601 1602 1603 # B N B N cis
9986 2 1602 1603 1604 1607 # B N B N cis
9987 1 1602 1603 1604 1721 # B N B N trans
9988 2 1603 1604 1607 1606 # B N B N cis
9989 1 1603 1604 1607 1608 # B N B N trans
9990 2 1603 1604 1721 1722 # B N B N cis
9991 1 1603 1604 1721 1726 # B N B N trans
9992 1 1604 1607 1606 1605 # B N B N trans
9993 1 1604 1607 1608 1611 # B N B N trans
9994 2 1604 1607 1608 1725 # B N B N cis
9995 1 1607 1604 1721 1722 # B N B N trans
9996 2 1607 1604 1721 1726 # B N B N cis
9997 2 1604 1721 1722 1717 # B N B N cis
9998 1 1604 1721 1722 1723 # B N B N trans
9999 2 1604 1721 1726 1725 # B N B N cis
10000 1 1604 1721 1726 1727 # B N B N trans
10001 1 1721 1604 1607 1606 # B N B N trans
10002 2 1721 1604 1607 1608 # B N B N cis
10003 2 1605 1606 1607 1608 # B N B N cis
10004 1 1606 1605 1610 1609 # B N B N trans
10005 2 1606 1605 1610 1611 # B N B N cis
10006 1 1605 1610 1609 1614 # B N B N trans
10007 1 1605 1610 1611 1612 # B N B N trans
10008 2 1605 1610 1611 1608 # B N B N cis
10009 2 1610 1605 1606 1607 # B N B N cis
10010 2 1606 1607 1608 1611 # B N B N cis
10011 1 1606 1607 1608 1725 # B N B N trans
10012 2 1607 1608 1611 1610 # B N B N cis
10013 1 1607 1608 1611 1612 # B N B N trans
10014 2 1607 1608 1725 1726 # B N B N cis
10015 1 1607 1608 1725 1730 # B N B N trans
10016 1 1608 1611 1610 1609 # B N B N trans
10017 1 1608 1611 1612 1615 # B N B N trans
10018 2 1608 1611 1612 1729 # B N B N cis
10019 1 1611 1608 1725 1726 # B N B N trans
10020 2 1611 1608 1725 1730 # B N B N cis
10021 2 1608 1725 1726 1721 # B N B N cis
10022 1 1608 1725 1726 1727 # B N B N trans
10023 2 1608 1725 1730 1729 # B N B N cis
10024 1 1608 1725 1730 1731 # B N B N trans
10025 1 1725 1608 1611 1610 # B N B N trans
10026 2 1725 1608 1611 1612 # B N B N cis
10027 2 1609 1610 1611 1612 # B N B N cis
10028 1 1610 1609 1614 1613 # B N B N trans
10029 2 1610 1609 1614 1615 # B N B N cis
10030 1 1609 1614 1613 1618 # B N B N trans
10031 1 1609 1614 1615 1616 # B N B N trans
10032 2 1609 1614 1615 1612 # B N B N cis
10033 2 1614 1609 1610 1611 # B N B N cis
10034 2 1610 1611 1612 1615 # B N B N cis
10035 1 1610 1611 1612 1729 # B N B N trans
10036 2 1611 1612 1615 1614 # B N B N cis
10037 1 1611 1612 1615 1616 # B N B N trans
10038 2 1611 1612 1729 1730 # B N B N cis
10039 1 1611 1612 1729 1734 # B N B N trans
10040 1 1612 1615 1614 1613 # B N B N trans
10041 1 1612 1615 1616 1619 # B N B N trans
10042 2 1612 1615 1616 1733 # B N B N cis
10043 1 1615 1612 1729 1730 # B N B N trans
10044 2 1615 1612 1729 1734 # B N B N cis
10045 2 1612 1729 1730 1725 # B N B N cis
10046 1 1612 1729 1730 1731 # B N B N trans
10047 2 1612 1729 1734 1733 # B N B N cis
10048 1 1612 1729 1734 1735 # B N B N trans
10049 1 1729 1612 1615 1614 # B N B N trans
10050 2 1729 1612 1615 1616 # B N B N cis
10051 2 1613 1614 1615 1616 # B N B N cis
10052 1 1614 1613 1618 1617 # B N B N trans
10053 2 1614 1613 1618 1619 # B N B N cis
10054 1 1613 1618 1617 1622 # B N B N trans
10055 1 1613 1618 1619 1620 # B N B N trans
10056 2 1613 1618 1619 1616 # B N B N cis
10057 2 1618 1613 1614 1615 # B N B N cis
10058 2 1614 1615 1616 1619 # B N B N cis
10059 1 1614 1615 1616 1733 # B N B N trans
10060 2 1615 1616 1619 1618 # B N B N cis
10061 1 1615 1616 1619 1620 # B N B N trans
10062 2 1615 1616 1733 1734 # B N B N cis
10063 1 1615 1616 1733 1738 # B N B N trans
10064 1 1616 1619 1618 1617 # B N B N trans
10065 1 1616 1619 1620 1623 # B N B N trans
10066 2 1616 1619 1620 1737 # B N B N cis
10067 1 1619 1616 1733 1734 # B N B N trans
10068 2 1619 1616 1733 1738 # B N B N cis
10069 2 1616 1733 1734 1729 # B N B N cis
10070 1 1616 1733 1734 1735 # B N B N trans
10071 2 1616 1733 1738 1737 # B N B N cis
10072 1 1616 1733 1738 1739 # B N B N trans
10073 1 1733 1616 1619 1618 # B N B N trans
10074 2 1733 1616 1619 1620 # B N B N cis
10075 2 1617 1618 1619 1620 # B N B N cis
10076 1 1618 1617 1622 1621 # B N B N trans
10077 2 1618 1617 1622 1623 # B N B N cis
10078 1 1617 1622 1621 1626 # B N B N trans
10079 1 1617 1622 1623 1624 # B N B N trans
10080 2 1617 1622 1623 1620 # B N B N cis
10081 2 1622 1617 1618 1619 # B N B N cis
10082 2 1618 1619 1620 1623 # B N B N cis
10083 1 1618 1619 1620 1737 # B N B N trans
10084 2 1619 1620 1623 1622 # B N B N cis
10085 1 1619 1620 1623 1624 # B N B N trans
10086 2 1619 1620 1737 1738 # B N B N cis
10087 1 1619 1620 1737 1742 # B N B N trans
10088 1 1620 1623 1622 1621 # B N B N trans
10089 1 1620 1623 1624 1627 # B N B N trans
10090 2 1620 1623 1624 1741 # B N B N cis
10091 1 1623 1620 1737 1738 # B N B N trans
10092 2 1623 1620 1737 1742 # B N B N cis
10093 2 1620 1737 1738 1733 # B N B N cis
10094 1 1620 1737 1738 1739 # B N B N trans
10095 2 1620 1737 1742 1741 # B N B N cis
10096 1 1620 1737 1742 1743 # B N B N trans
10097 1 1737 1620 1623 1622 # B N B N trans
10098 2 1737 1620 1623 1624 # B N B N cis
10099 2 1621 1622 1623 1624 # B N B N cis
10100 1 1622 1621 1626 1625 # B N B N trans
10101 2 1622 1621 1626 1627 # B N B N cis
10102 1 1621 1626 1625 1630 # B N B N trans
10103 1 1621 1626 1627 1628 # B N B N trans
10104 2 1621 1626 1627 1624 # B N B N cis
10105 2 1626 1621 1622 1623 # B N B N cis
10106 2 1622 1623 1624 1627 # B N B N cis
10107 1 1622 1623 1624 1741 # B N B N trans
10108 2 1623 1624 1627 1626 # B N B N cis
10109 1 1623 1624 1627 1628 # B N B N trans
10110 2 1623 1624 1741 1742 # B N B N cis
10111 1 1623 1624 1741 1746 # B N B N trans
10112 1 1624 1627 1626 1625 # B N B N trans
10113 1 1624 1627 1628 1631 # B N B N trans
10114 2 1624 1627 1628 1745 # B N B N cis
10115 1 1627 1624 1741 1742 # B N B N trans
10116 2 1627 1624 1741 1746 # B N B N cis
10117 2 1624 1741 1742 1737 # B N B N cis
10118 1 1624 1741 1742 1743 # B N B N trans
10119 2 1624 1741 1746 1745 # B N B N cis
10120 1 1624 1741 1746 1747 # B N B N trans
10121 1 1741 1624 1627 1626 # B N B N trans
10122 2 1741 1624 1627 1628 # B N B N cis
10123 2 1625 1626 1627 1628 # B N B N cis
10124 1 1626 1625 1630 1629 # B N B N trans
10125 2 1626 1625 1630 1631 # B N B N cis
10126 1 1625 1630 1629 1634 # B N B N trans
10127 1 1625 1630 1631 1632 # B N B N trans
10128 2 1625 1630 1631 1628 # B N B N cis
10129 2 1630 1625 1626 1627 # B N B N cis
10130 2 1626 1627 1628 1631 # B N B N cis
10131 1 1626 1627 1628 1745 # B N B N trans
10132 2 1627 1628 1631 1630 # B N B N cis
10133 1 1627 1628 1631 1632 # B N B N trans
10134 2 1627 1628 1745 1746 # B N B N cis
10135 1 1627 1628 1745 1750 # B N B N trans
10136 1 1628 1631 1630 1629 # B N B N trans
10137 1 1628 1631 1632 1635 # B N B N trans
10138 2 1628 1631 1632 1749 # B N B N cis
10139 1 1631 1628 1745 1746 # B N B N trans
10140 2 1631 1628 1745 1750 # B N B N cis
10141 2 1628 1745 1746 1741 # B N B N cis
10142 1 1628 1745 1746 1747 # B N B N trans
10143 2 1628 1745 1750 1749 # B N B N cis
10144 1 1628 1745 1750 1751 # B N B N trans
10145 1 1745 1628 1631 1630 # B N B N trans
10146 2 1745 1628 1631 1632 # B N B N cis
10147 2 1629 1630 1631 1632 # B N B N cis
10148 1 1630 1629 1634 1633 # B N B N trans
10149 2 1630 1629 1634 1635 # B N B N cis
10150 1 1629 1634 1633 1638 # B N B N trans
10151 1 1629 1634 1635 1636 # B N B N trans
10152 2 1629 1634 1635 1632 # B N B N cis
10153 2 1634 1629 1630 1631 # B N B N cis
10154 2 1630 1631 1632 1635 # B N B N cis
10155 1 1630 1631 1632 1749 # B N B N trans
10156 2 1631 1632 1635 1634 # B N B N cis
10157 1 1631 1632 1635 1636 # B N B N trans
10158 2 1631 1632 1749 1750 # B N B N cis
10159 1 1631 1632 1749 1754 # B N B N trans
10160 1 1632 1635 1634 1633 # B N B N trans
10161 1 1632 1635 1636 1639 # B N B N trans
10162 2 1632 1635 1636 1753 # B N B N cis
10163 1 1635 1632 1749 1750 # B N B N trans
10164 2 1635 1632 1749 1754 # B N B N cis
10165 2 1632 1749 1750 1745 # B N B N cis
10166 1 1632 1749 1750 1751 # B N B N trans
10167 2 1632 1749 1754 1753 # B N B N cis
10168 1 1632 1749 1754 1755 # B N B N trans
10169 1 1749 1632 1635 1634 # B N B N trans
10170 2 1749 1632 1635 1636 # B N B N cis
10171 2 1633 1634 1635 1636 # B N B N cis
10172 1 1634 1633 1638 1637 # B N B N trans
10173 2 1634 1633 1638 1639 # B N B N cis
10174 1 1633 1638 1637 1642 # B N B N trans
10175 1 1633 1638 1639 1640 # B N B N trans
10176 2 1633 1638 1639 1636 # B N B N cis
10177 2 1638 1633 1634 1635 # B N B N cis
10178 2 1634 1635 1636 1639 # B N B N cis
10179 1 1634 1635 1636 1753 # B N B N trans
10180 2 1635 1636 1639 1638 # B N B N cis
10181 1 1635 1636 1639 1640 # B N B N trans
10182 2 1635 1636 1753 1754 # B N B N cis
10183 1 1635 1636 1753 1758 # B N B N trans
10184 1 1636 1639 1638 1637 # B N B N trans
10185 1 1636 1639 1640 1643 # B N B N trans
10186 2 1636 1639 1640 1757 # B N B N cis
10187 1 1639 1636 1753 1754 # B N B N trans
10188 2 1639 1636 1753 1758 # B N B N cis
10189 2 1636 1753 1754 1749 # B N B N cis
10190 1 1636 1753 1754 1755 # B N B N trans
10191 2 1636 1753 1758 1757 # B N B N cis
10192 1 1636 1753 1758 1759 # B N B N trans
10193 1 1753 1636 1639 1638 # B N B N trans
10194 2 1753 1636 1639 1640 # B N B N cis
10195 2 1637 1638 1639 1640 # B N B N cis
10196 1 1638 1637 1642 1641 # B N B N trans
10197 2 1638 1637 1642 1643 # B N B N cis
10198 1 1637 1642 1641 1646 # B N B N trans
10199 1 1637 1642 1643 1644 # B N B N trans
10200 2 1637 1642 1643 1640 # B N B N cis
10201 2 1642 1637 1638 1639 # B N B N cis
10202 2 1638 1639 1640 1643 # B N B N cis
10203 1 1638 1639 1640 1757 # B N B N trans
10204 2 1639 1640 1643 1642 # B N B N cis
10205 1 1639 1640 1643 1644 # B N B N trans
10206 2 1639 1640 1757 1758 # B N B N cis
10207 1 1639 1640 1757 1762 # B N B N trans
10208 1 1640 1643 1642 1641 # B N B N trans
10209 1 1640 1643 1644 1647 # B N B N trans
10210 2 1640 1643 1644 1761 # B N B N cis
10211 1 1643 1640 1757 1758 # B N B N trans
10212 2 1643 1640 1757 1762 # B N B N cis
10213 2 1640 1757 1758 1753 # B N B N cis
10214 1 1640 1757 1758 1759 # B N B N trans
10215 2 1640 1757 1762 1761 # B N B N cis
10216 1 1640 1757 1762 1763 # B N B N trans
10217 1 1757 1640 1643 1642 # B N B N trans
10218 2 1757 1640 1643 1644 # B N B N cis
10219 2 1641 1642 1643 1644 # B N B N cis
10220 1 1642 1641 1646 1645 # B N B N trans
10221 2 1642 1641 1646 1647 # B N B N cis
10222 1 1641 1646 1645 1650 # B N B N trans
10223 1 1641 1646 1647 1648 # B N B N trans
10224 2 1641 1646 1647 1644 # B N B N cis
10225 2 1646 1641 1642 1643 # B N B N cis
10226 2 1642 1643 1644 1647 # B N B N cis
10227 1 1642 1643 1644 1761 # B N B N trans
10228 2 1643 1644 1647 1646 # B N B N cis
10229 1 1643 1644 1647 1648 # B N B N trans
10230 2 1643 1644 1761 1762 # B N B N cis
10231 1 1643 1644 1761 1766 # B N B N trans
10232 1 1644 1647 1646 1645 # B N B N trans
10233 1 1644 1647 1648 1651 # B N B N trans
10234 2 1644 1647 1648 1765 # B N B N cis
10235 1 1647 1644 1761 1762 # B N B N trans
10236 2 1647 1644 1761 1766 # B N B N cis
10237 2 1644 1761 1762 1757 # B N B N cis
10238 1 1644 1761 1762 1763 # B N B N trans
10239 2 1644 1761 1766 1765 # B N B N cis
10240 1 1644 1761 1766 1767 # B N B N trans
10241 1 1761 1644 1647 1646 # B N B N trans
10242 2 1761 1644 1647 1648 # B N B N cis
10243 2 1645 1646 1647 1648 # B N B N cis
10244 1 1646 1645 1650 1649 # B N B N trans
10245 2 1646 1645 1650 1651 # B N B N cis
10246 1 1645 1650 1649 1654 # B N B N trans
10247 1 1645 1650 1651 1652 # B N B N trans
10248 2 1645 1650 1651 1648 # B N B N cis
10249 2 1650 1645 1646 1647 # B N B N cis
10250 2 1646 1647 1648 1651 # B N B N cis
10251 1 1646 1647 1648 1765 # B N B N trans
10252 2 1647 1648 1651 1650 # B N B N cis
10253 1 1647 1648 1651 1652 # B N B N trans
10254 2 1647 1648 1765 1766 # B N B N cis
10255 1 1647 1648 1765 1770 # B N B N trans
10256 1 1648 1651 1650 1649 # B N B N trans
10257 1 1648 1651 1652 1655 # B N B N trans
10258 2 1648 1651 1652 1769 # B N B N cis
10259 1 1651 1648 1765 1766 # B N B N trans
10260 2 1651 1648 1765 1770 # B N B N cis
10261 2 1648 1765 1766 1761 # B N B N cis
10262 1 1648 1765 1766 1767 # B N B N trans
10263 2 1648 1765 1770 1769 # B N B N cis
10264 1 1648 1765 1770 1771 # B N B N trans
10265 1 1765 1648 1651 1650 # B N B N trans
10266 2 1765 1648 1651 1652 # B N B N cis
10267 2 1649 1650 1651 1652 # B N B N cis
10268 1 1650 1649 1654 1653 # B N B N trans
10269 2 1650 1649 1654 1655 # B N B N cis
10270 1 1649 1654 1653 1658 # B N B N trans
10271 1 1649 1654 1655 1656 # B N B N trans
10272 2 1649 1654 1655 1652 # B N B N cis
10273 2 1654 1649 1650 1651 # B N B N cis
10274 2 1650 1651 1652 1655 # B N B N cis
10275 1 1650 1651 1652 1769 # B N B N trans
10276 2 1651 1652 1655 1654 # B N B N cis
10277 1 1651 1652 1655 1656 # B N B N trans
10278 2 1651 1652 1769 1770 # B N B N cis
10279 1 1651 1652 1769 1774 # B N B N trans
10280 1 1652 1655 1654 1653 # B N B N trans
10281 1 1652 1655 1656 1659 # B N B N trans
10282 2 1652 1655 1656 1773 # B N B N cis
10283 1 1655 1652 1769 1770 # B N B N trans
10284 2 1655 1652 1769 1774 # B N B N cis
10285 2 1652 1769 1770 1765 # B N B N cis
10286 1 1652 1769 1770 1771 # B N B N trans
10287 2 1652 1769 1774 1773 # B N B N cis
10288 1 1652 1769 1774 1775 # B N B N trans
10289 1 1769 1652 1655 1654 # B N B N trans
10290 2 1769 1652 1655 1656 # B N B N cis
10291 2 1653 1654 1655 1656 # B N B N cis
10292 1 1654 1653 1658 1657 # B N B N trans
10293 2 1654 1653 1658 1659 # B N B N cis
10294 1 1653 1658 1657 1662 # B N B N trans
10295 1 1653 1658 1659 1660 # B N B N trans
10296 2 1653 1658 1659 1656 # B N B N cis
10297 2 1658 1653 1654 1655 # B N B N cis
10298 2 1654 1655 1656 1659 # B N B N cis
10299 1 1654 1655 1656 1773 # B N B N trans
10300 2 1655 1656 1659 1658 # B N B N cis
10301 1 1655 1656 1659 1660 # B N B N trans
10302 2 1655 1656 1773 1774 # B N B N cis
10303 1 1655 1656 1773 1778 # B N B N trans
10304 1 1656 1659 1658 1657 # B N B N trans
10305 1 1656 1659 1660 1663 # B N B N trans
10306 2 1656 1659 1660 1777 # B N B N cis
10307 1 1659 1656 1773 1774 # B N B N trans
10308 2 1659 1656 1773 1778 # B N B N cis
10309 2 1656 1773 1774 1769 # B N B N cis
10310 1 1656 1773 1774 1775 # B N B N trans
10311 2 1656 1773 1778 1777 # B N B N cis
10312 1 1656 1773 1778 1779 # B N B N trans
10313 1 1773 1656 1659 1658 # B N B N trans
10314 2 1773 1656 1659 1660 # B N B N cis
10315 2 1657 1658 1659 1660 # B N B N cis
10316 1 1658 1657 1662 1661 # B N B N trans
10317 2 1658 1657 1662 1663 # B N B N cis
10318 1 1657 1662 1661 1666 # B N B N trans
10319 1 1657 1662 1663 1664 # B N B N trans
10320 2 1657 1662 1663 1660 # B N B N cis
10321 2 1662 1657 1658 1659 # B N B N cis
10322 2 1658 1659 1660 1663 # B N B N cis
10323 1 1658 1659 1660 1777 # B N B N trans
10324 2 1659 1660 1663 1662 # B N B N cis
10325 1 1659 1660 1663 1664 # B N B N trans
10326 2 1659 1660 1777 1778 # B N B N cis
10327 1 1659 1660 1777 1782 # B N B N trans
10328 1 1660 1663 1662 1661 # B N B N trans
10329 1 1660 1663 1664 1667 # B N B N trans
10330 2 1660 1663 1664 1781 # B N B N cis
10331 1 1663 1660 1777 1778 # B N B N trans
10332 2 1663 1660 1777 1782 # B N B N cis
10333 2 1660 1777 1778 1773 # B N B N cis
10334 1 1660 1777 1778 1779 # B N B N trans
10335 2 1660 1777 1782 1781 # B N B N cis
10336 1 1660 1777 1782 1783 # B N B N trans
10337 1 1777 1660 1663 1662 # B N B N trans
10338 2 1777 1660 1663 1664 # B N B N cis
10339 2 1661 1662 1663 1664 # B N B N cis
10340 1 1662 1661 1666 1665 # B N B N trans
10341 2 1662 1661 1666 1667 # B N B N cis
10342 1 1661 1666 1665 1670 # B N B N trans
10343 1 1661 1666 1667 1668 # B N B N trans
10344 2 1661 1666 1667 1664 # B N B N cis
10345 2 1666 1661 1662 1663 # B N B N cis
10346 2 1662 1663 1664 1667 # B N B N cis
10347 1 1662 1663 1664 1781 # B N B N trans
10348 2 1663 1664 1667 1666 # B N B N cis
10349 1 1663 1664 1667 1668 # B N B N trans
10350 2 1663 1664 1781 1782 # B N B N cis
10351 1 1663 1664 1781 1786 # B N B N trans
10352 1 1664 1667 1666 1665 # B N B N trans
10353 1 1664 1667 1668 1671 # B N B N trans
10354 2 1664 1667 1668 1785 # B N B N cis
10355 1 1667 1664 1781 1782 # B N B N trans
10356 2 1667 1664 1781 1786 # B N B N cis
10357 2 1664 1781 1782 1777 # B N B N cis
10358 1 1664 1781 1782 1783 # B N B N trans
10359 2 1664 1781 1786 1785 # B N B N cis
10360 1 1664 1781 1786 1787 # B N B N trans
10361 1 1781 1664 1667 1666 # B N B N trans
10362 2 1781 1664 1667 1668 # B N B N cis
10363 2 1665 1666 1667 1668 # B N B N cis
10364 1 1666 1665 1670 1669 # B N B N trans
10365 2 1666 1665 1670 1671 # B N B N cis
10366 1 1665 1670 1669 1674 # B N B N trans
10367 1 1665 1670 1671 1672 # B N B N trans
10368 2 1665 1670 1671 1668 # B N B N cis
10369 2 1670 1665 1666 1667 # B N B N cis
10370 2 1666 1667 1668 1671 # B N B N cis
10371 1 1666 1667 1668 1785 # B N B N trans
10372 2 1667 1668 1671 1670 # B N B N cis
10373 1 1667 1668 1671 1672 # B N B N trans
10374 2 1667 1668 1785 1786 # B N B N cis
10375 1 1667 1668 1785 1790 # B N B N trans
10376 1 1668 1671 1670 1669 # B N B N trans
10377 1 1668 1671 1672 1675 # B N B N trans
10378 2 1668 1671 1672 1789 # B N B N cis
10379 1 1671 1668 1785 1786 # B N B N trans
10380 2 1671 1668 1785 1790 # B N B N cis
10381 2 1668 1785 1786 1781 # B N B N cis
10382 1 1668 1785 1786 1787 # B N B N trans
10383 2 1668 1785 1790 1789 # B N B N cis
10384 1 1668 1785 1790 1791 # B N B N trans
10385 1 1785 1668 1671 1670 # B N B N trans
10386 2 1785 1668 1671 1672 # B N B N cis
10387 2 1669 1670 1671 1672 # B N B N cis
10388 1 1670 1669 1674 1673 # B N B N trans
10389 2 1670 1669 1674 1675 # B N B N cis
10390 1 1669 1674 1673 1678 # B N B N trans
10391 1 1669 1674 1675 1676 # B N B N trans
10392 2 1669 1674 1675 1672 # B N B N cis
10393 2 1674 1669 1670 1671 # B N B N cis
10394 2 1670 1671 1672 1675 # B N B N cis
10395 1 1670 1671 1672 1789 # B N B N trans
10396 2 1671 1672 1675 1674 # B N B N cis
10397 1 1671 1672 1675 1676 # B N B N trans
10398 2 1671 1672 1789 1790 # B N B N cis
10399 1 1671 1672 1789 1794 # B N B N trans
10400 1 1672 1675 1674 1673 # B N B N trans
10401 1 1672 1675 1676 1679 # B N B N trans
10402 2 1672 1675 1676 1793 # B N B N cis
10403 1 1675 1672 1789 1790 # B N B N trans
10404 2 1675 1672 1789 1794 # B N B N cis
10405 2 1672 1789 1790 1785 # B N B N cis
10406 1 1672 1789 1790 1791 # B N B N trans
10407 2 1672 1789 1794 1793 # B N B N cis
10408 1 1672 1789 1794 1795 # B N B N trans
10409 1 1789 1672 1675 1674 # B N B N trans
10410 2 1789 1672 1675 1676 # B N B N cis
10411 2 1673 1674 1675 1676 # B N B N cis
10412 1 1674 1673 1678 1677 # B N B N trans
10413 2 1674 1673 1678 1679 # B N B N cis
10414 1 1673 1678 1679 1680 # B N B N trans
10415 2 1673 1678 1679 1676 # B N B N cis
10416 2 1678 1673 1674 1675 # B N B N cis
10417 2 1674 1675 1676 1679 # B N B N cis
10418 1 1674 1675 1676 1793 # B N B N trans
10419 2 1675 1676 1679 1678 # B N B N cis
10420 1 1675 1676 1679 1680 # B N B N trans
10421 2 1675 1676 1793 1794 # B N B N cis
10422 1 1675 1676 1793 1798 # B N B N trans
10423 1 1676 1679 1678 1677 # B N B N trans
10424 2 1676 1679 1680 1797 # B N B N cis
10425 1 1679 1676 1793 1794 # B N B N trans
10426 2 1679 1676 1793 1798 # B N B N cis
10427 2 1676 1793 1794 1789 # B N B N cis
10428 1 1676 1793 1794 1795 # B N B N trans
10429 2 1676 1793 1798 1797 # B N B N cis
10430 1 1676 1793 1798 1799 # B N B N trans
10431 1 1793 1676 1679 1678 # B N B N trans
10432 2 1793 1676 1679 1680 # B N B N cis
10433 2 1677 1678 1679 1680 # B N B N cis
10434 1 1678 1679 1680 1797 # B N B N trans
10435 2 1679 1680 1797 1798 # B N B N cis
10436 1 1679 1680 1797 1682 # B N B N trans
10437 2 1680 1797 1798 1793 # B N B N cis
10438 1 1680 1797 1798 1799 # B N B N trans
10439 2 1680 1797 1682 1681 # B N B N cis
10440 1 1680 1797 1682 1683 # B N B N trans
10441 2 1681 1682 1683 1684 # B N B N cis
10442 1 1681 1682 1683 1800 # B N B N trans
10443 1 1681 1682 1797 1798 # B N B N trans
10444 1 1682 1681 1686 1685 # B N B N trans
10445 2 1682 1681 1686 1687 # B N B N cis
10446 1 1681 1686 1685 1690 # B N B N trans
10447 1 1681 1686 1687 1688 # B N B N trans
10448 2 1681 1686 1687 1684 # B N B N cis
10449 2 1686 1681 1682 1683 # B N B N cis
10450 1 1686 1681 1682 1797 # B N B N trans
10451 2 1682 1683 1684 1687 # B N B N cis
10452 2 1682 1683 1800 1799 # B N B N cis
10453 2 1683 1682 1797 1798 # B N B N cis
10454 1 1682 1797 1798 1793 # B N B N trans
10455 2 1682 1797 1798 1799 # B N B N cis
10456 1 1797 1682 1683 1684 # B N B N trans
10457 2 1797 1682 1683 1800 # B N B N cis
10458 2 1683 1684 1687 1686 # B N B N cis
10459 1 1683 1684 1687 1688 # B N B N trans
10460 1 1684 1683 1800 1799 # B N B N trans
10461 2 1683 1800 1799 1798 # B N B N cis
10462 1 1683 1800 1799 1796 # B N B N trans
10463 1 1800 1683 1684 1687 # B N B N trans
10464 1 1684 1687 1686 1685 # B N B N trans
10465 1 1684 1687 1688 1691 # B N B N trans
10466 2 1685 1686 1687 1688 # B N B N cis
10467 1 1686 1685 1690 1689 # B N B N trans
10468 2 1686 1685 1690 1691 # B N B N cis
10469 1 1685 1690 1689 1694 # B N B N trans
10470 1 1685 1690 1691 1692 # B N B N trans
10471 2 1685 1690 1691 1688 # B N B N cis
10472 2 1690 1685 1686 1687 # B N B N cis
10473 2 1686 1687 1688 1691 # B N B N cis
10474 2 1687 1688 1691 1690 # B N B N cis
10475 1 1687 1688 1691 1692 # B N B N trans
10476 1 1688 1691 1690 1689 # B N B N trans
10477 1 1688 1691 1692 1695 # B N B N trans
10478 2 1689 1690 1691 1692 # B N B N cis
10479 1 1690 1689 1694 1693 # B N B N trans
10480 2 1690 1689 1694 1695 # B N B N cis
10481 1 1689 1694 1693 1698 # B N B N trans
10482 1 1689 1694 1695 1696 # B N B N trans
10483 2 1689 1694 1695 1692 # B N B N cis
10484 2 1694 1689 1690 1691 # B N B N cis
10485 2 1690 1691 1692 1695 # B N B N cis
10486 2 1691 1692 1695 1694 # B N B N cis
10487 1 1691 1692 1695 1696 # B N B N trans
10488 1 1692 1695 1694 1693 # B N B N trans
10489 1 1692 1695 1696 1699 # B N B N trans
10490 2 1693 1694 1695 1696 # B N B N cis
10491 1 1694 1693 1698 1697 # B N B N trans
10492 2 1694 1693 1698 1699 # B N B N cis
10493 1 1693 1698 1697 1702 # B N B N trans
10494 1 1693 1698 1699 1700 # B N B N trans
10495 2 1693 1698 1699 1696 # B N B N cis
10496 2 1698 1693 1694 1695 # B N B N cis
10497 2 1694 1695 1696 1699 # B N B N cis
10498 2 1695 1696 1699 1698 # B N B N cis
10499 1 1695 1696 1699 1700 # B N B N trans
10500 1 1696 1699 1698 1697 # B N B N trans
10501 1 1696 1699 1700 1703 # B N B N trans
10502 2 1697 1698 1699 1700 # B N B N cis
10503 1 1698 1697 1702 1701 # B N B N trans
10504 2 1698 1697 1702 1703 # B N B N cis
10505 1 1697 1702 1701 1706 # B N B N trans
10506 1 1697 1702 1703 1704 # B N B N trans
10507 2 1697 1702 1703 1700 # B N B N cis
10508 2 1702 1697 1698 1699 # B N B N cis
10509 2 1698 1699 1700 1703 # B N B N cis
10510 2 1699 1700 1703 1702 # B N B N cis
10511 1 1699 1700 1703 1704 # B N B N trans
10512 1 1700 1703 1702 1701 # B N B N trans
10513 1 1700 1703 1704 1707 # B N B N trans
10514 2 1701 1702 1703 1704 # B N B N cis
10515 1 1702 1701 1706 1705 # B N B N trans
10516 2 1702 1701 1706 1707 # B N B N cis
10517 1 1701 1706 1705 1710 # B N B N trans
10518 1 1701 1706 1707 1708 # B N B N trans
10519 2 1701 1706 1707 1704 # B N B N cis
10520 2 1706 1701 1702 1703 # B N B N cis
10521 2 1702 1703 1704 1707 # B N B N cis
10522 2 1703 1704 1707 1706 # B N B N cis
10523 1 1703 1704 1707 1708 # B N B N trans
10524 1 1704 1707 1706 1705 # B N B N trans
10525 1 1704 1707 1708 1711 # B N B N trans
10526 2 1705 1706 1707 1708 # B N B N cis
10527 1 1706 1705 1710 1709 # B N B N trans
10528 2 1706 1705 1710 1711 # B N B N cis
10529 1 1705 1710 1709 1714 # B N B N trans
10530 1 1705 1710 1711 1712 # B N B N trans
10531 2 1705 1710 1711 1708 # B N B N cis
10532 2 1710 1705 1706 1707 # B N B N cis
10533 2 1706 1707 1708 1711 # B N B N cis
10534 2 1707 1708 1711 1710 # B N B N cis
10535 1 1707 1708 1711 1712 # B N B N trans
10536 1 1708 1711 1710 1709 # B N B N trans
10537 1 1708 1711 1712 1715 # B N B N trans
10538 2 1709 1710 1711 1712 # B N B N cis
10539 1 1710 1709 1714 1713 # B N B N trans
10540 2 1710 1709 1714 1715 # B N B N cis
10541 1 1709 1714 1713 1718 # B N B N trans
10542 1 1709 1714 1715 1716 # B N B N trans
10543 2 1709 1714 1715 1712 # B N B N cis
10544 2 1714 1709 1710 1711 # B N B N cis
10545 2 1710 1711 1712 1715 # B N B N cis
10546 2 1711 1712 1715 1714 # B N B N cis
10547 1 1711 1712 1715 1716 # B N B N trans
10548 1 1712 1715 1714 1713 # B N B N trans
10549 1 1712 1715 1716 1719 # B N B N trans
10550 2 1713 1714 1715 1716 # B N B N cis
10551 1 1714 1713 1718 1717 # B N B N trans
10552 2 1714 1713 1718 1719 # B N B N cis
10553 1 1713 1718 1717 1722 # B N B N trans
10554 1 1713 1718 1719 1720 # B N B N trans
10555 2 1713 1718 1719 1716 # B N B N cis
10556 2 1718 1713 1714 1715 # B N B N cis
10557 2 1714 1715 1716 1719 # B N B N cis
10558 2 1715 1716 1719 1718 # B N B N cis
10559 1 1715 1716 1719 1720 # B N B N trans
10560 1 1716 1719 1718 1717 # B N B N trans
10561 1 1716 1719 1720 1723 # B N B N trans
10562 2 1717 1718 1719 1720 # B N B N cis
10563 1 1718 1717 1722 1721 # B N B N trans
10564 2 1718 1717 1722 1723 # B N B N cis
10565 1 1717 1722 1721 1726 # B N B N trans
10566 1 1717 1722 1723 1724 # B N B N trans
10567 2 1717 1722 1723 1720 # B N B N cis
10568 2 1722 1717 1718 1719 # B N B N cis
10569 2 1718 1719 1720 1723 # B N B N cis
10570 2 1719 1720 1723 1722 # B N B N cis
10571 1 1719 1720 1723 1724 # B N B N trans
10572 1 1720 1723 1722 1721 # B N B N trans
10573 1 1720 1723 1724 1727 # B N B N trans
10574 2 1721 1722 1723 1724 # B N B N cis
10575 1 1722 1721 1726 1725 # B N B N trans
10576 2 1722 1721 1726 1727 # B N B N cis
10577 1 1721 1726 1725 1730 # B N B N trans
10578 1 1721 1726 1727 1728 # B N B N trans
10579 2 1721 1726 1727 1724 # B N B N cis
10580 2 1726 1721 1722 1723 # B N B N cis
10581 2 1722 1723 1724 1727 # B N B N cis
10582 2 1723 1724 1727 1726 # B N B N cis
10583 1 1723 1724 1727 1728 # B N B N trans
10584 1 1724 1727 1726 1725 # B N B N trans
10585 1 1724 1727 1728 1731 # B N B N trans
10586 2 1725 1726 1727 1728 # B N B N cis
10587 1 1726 1725 1730 1729 # B N B N trans
10588 2 1726 1725 1730 1731 # B N B N cis
10589 1 1725 1730 1729 1734 # B N B N trans
10590 1 1725 1730 1731 1732 # B N B N trans
10591 2 1725 1730 1731 1728 # B N B N cis
10592 2 1730 1725 1726 1727 # B N B N cis
10593 2 1726 1727 1728 1731 # B N B N cis
10594 2 1727 1728 1731 1730 # B N B N cis
10595 1 1727 1728 1731 1732 # B N B N trans
10596 1 1728 1731 1730 1729 # B N B N trans
10597 1 1728 1731 1732 1735 # B N B N trans
10598 2 1729 1730 1731 1732 # B N B N cis
10599 1 1730 1729 1734 1733 # B N B N trans
10600 2 1730 1729 1734 1735 # B N B N cis
10601 1 1729 1734 1733 1738 # B N B N trans
10602 1 1729 1734 1735 1736 # B N B N trans
10603 2 1729 1734 1735 1732 # B N B N cis
10604 2 1734 1729 1730 1731 # B N B N cis
10605 2 1730 1731 1732 1735 # B N B N cis
10606 2 1731 1732 1735 1734 # B N B N cis
10607 1 1731 1732 1735 1736 # B N B N trans
10608 1 1732 1735 1734 1733 # B N B N trans
10609 1 1732 1735 1736 1739 # B N B N trans
10610 2 1733 1734 1735 1736 # B N B N cis
10611 1 1734 1733 1738 1737 # B N B N trans
10612 2 1734 1733 1738 1739 # B N B N cis
10613 1 1733 1738 1737 1742 # B N B N trans
10614 1 1733 1738 1739 1740 # B N B N trans
10615 2 1733 1738 1739 1736 # B N B N cis
10616 2 1738 1733 1734 1735 # B N B N cis
10617 2 1734 1735 1736 1739 # B N B N cis
10618 2 1735 1736 1739 1738 # B N B N cis
10619 1 1735 1736 1739 1740 # B N B N trans
10620 1 1736 1739 1738 1737 # B N B N trans
10621 1 1736 1739 1740 1743 # B N B N trans
10622 2 1737 1738 1739 1740 # B N B N cis
10623 1 1738 1737 1742 1741 # B N B N trans
10624 2 1738 1737 1742 1743 # B N B N cis
10625 1 1737 1742 1741 1746 # B N B N trans
10626 1 1737 1742 1743 1744 # B N B N trans
10627 2 1737 1742 1743 1740 # B N B N cis
10628 2 1742 1737 1738 1739 # B N B N cis
10629 2 1738 1739 1740 1743 # B N B N cis
10630 2 1739 1740 1743 1742 # B N B N cis
10631 1 1739 1740 1743 1744 # B N B N trans
10632 1 1740 1743 1742 1741 # B N B N trans
10633 1 1740 1743 1744 1747 # B N B N trans
10634 2 1741 1742 1743 1744 # B N B N cis
10635 1 1742 1741 1746 1745 # B N B N trans
10636 2 1742 1741 1746 1747 # B N B N cis
10637 1 1741 1746 1745 1750 # B N B N trans
10638 1 1741 1746 1747 1748 # B N B N trans
10639 2 1741 1746 1747 1744 # B N B N cis
10640 2 1746 1741 1742 1743 # B N B N cis
10641 2 1742 1743 1744 1747 # B N B N cis
10642 2 1743 1744 1747 1746 # B N B N cis
10643 1 1743 1744 1747 1748 # B N B N trans
10644 1 1744 1747 1746 1745 # B N B N trans
10645 1 1744 1747 1748 1751 # B N B N trans
10646 2 1745 1746 1747 1748 # B N B N cis
10647 1 1746 1745 1750 1749 # B N B N trans
10648 2 1746 1745 1750 1751 # B N B N cis
10649 1 1745 1750 1749 1754 # B N B N trans
10650 1 1745 1750 1751 1752 # B N B N trans
10651 2 1745 1750 1751 1748 # B N B N cis
10652 2 1750 1745 1746 1747 # B N B N cis
10653 2 1746 1747 1748 1751 # B N B N cis
10654 2 1747 1748 1751 1750 # B N B N cis
10655 1 1747 1748 1751 1752 # B N B N trans
10656 1 1748 1751 1750 1749 # B N B N trans
10657 1 1748 1751 1752 1755 # B N B N trans
10658 2 1749 1750 1751 1752 # B N B N cis
10659 1 1750 1749 1754 1753 # B N B N trans
10660 2 1750 1749 1754 1755 # B N B N cis
10661 1 1749 1754 1753 1758 # B N B N trans
10662 1 1749 1754 1755 1756 # B N B N trans
10663 2 1749 1754 1755 1752 # B N B N cis
10664 2 1754 1749 1750 1751 # B N B N cis
10665 2 1750 1751 1752 1755 # B N B N cis
10666 2 1751 1752 1755 1754 # B N B N cis
10667 1 1751 1752 1755 1756 # B N B N trans
10668 1 1752 1755 1754 1753 # B N B N trans
10669 1 1752 1755 1756 1759 # B N B N trans
10670 2 1753 1754 1755 1756 # B N B N cis
10671 1 1754 1753 1758 1757 # B N B N trans
10672 2 1754 1753 1758 1759 # B N B N cis
10673 1 1753 1758 1757 1762 # B N B N trans
10674 1 1753 1758 1759 1760 # B N B N trans
10675 2 1753 1758 1759 1756 # B N B N cis
10676 2 1758 1753 1754 1755 # B N B N cis
10677 2 1754 1755 1756 1759 # B N B N cis
10678 2 1755 1756 1759 1758 # B N B N cis
10679 1 1755 1756 1759 1760 # B N B N trans
10680 1 1756 1759 1758 1757 # B N B N trans
10681 1 1756 1759 1760 1763 # B N B N trans
10682 2 1757 1758 1759 1760 # B N B N cis
10683 1 1758 1757 1762 1761 # B N B N trans
10684 2 1758 1757 1762 1763 # B N B N cis
10685 1 1757 1762 1761 1766 # B N B N trans
10686 1 1757 1762 1763 1764 # B N B N trans
10687 2 1757 1762 1763 1760 # B N B N cis
10688 2 1762 1757 1758 1759 # B N B N cis
10689 2 1758 1759 1760 1763 # B N B N cis
10690 2 1759 1760 1763 1762 # B N B N cis
10691 1 1759 1760 1763 1764 # B N B N trans
10692 1 1760 1763 1762 1761 # B N B N trans
10693 1 1760 1763 1764 1767 # B N B N trans
10694 2 1761 1762 1763 1764 # B N B N cis
10695 1 1762 1761 1766 1765 # B N B N trans
10696 2 1762 1761 1766 1767 # B N B N cis
10697 1 1761 1766 1765 1770 # B N B N trans
10698 1 1761 1766 1767 1768 # B N B N trans
10699 2 1761 1766 1767 1764 # B N B N cis
10700 2 1766 1761 1762 1763 # B N B N cis
10701 2 1762 1763 1764 1767 # B N B N cis
10702 2 1763 1764 1767 1766 # B N B N cis
10703 1 1763 1764 1767 1768 # B N B N trans
10704 1 1764 1767 1766 1765 # B N B N trans
10705 1 1764 1767 1768 1771 # B N B N trans
10706 2 1765 1766 1767 1768 # B N B N cis
10707 1 1766 1765 1770 1769 # B N B N trans
10708 2 1766 1765 1770 1771 # B N B N cis
10709 1 1765 1770 1769 1774 # B N B N trans
10710 1 1765 1770 1771 1772 # B N B N trans
10711 2 1765 1770 1771 1768 # B N B N cis
10712 2 1770 1765 1766 1767 # B N B N cis
10713 2 1766 1767 1768 1771 # B N B N cis
10714 2 1767 1768 1771 1770 # B N B N cis
10715 1 1767 1768 1771 1772 # B N B N trans
10716 1 1768 1771 1770 1769 # B N B N trans
10717 1 1768 1771 1772 1775 # B N B N trans
10718 2 1769 1770 1771 1772 # B N B N cis
10719 1 1770 1769 1774 1773 # B N B N trans
10720 2 1770 1769 1774 1775 # B N B N cis
10721 1 1769 1774 1773 1778 # B N B N trans
10722 1 1769 1774 1775 1776 # B N B N trans
10723 2 1769 1774 1775 1772 # B N B N cis
10724 2 1774 1769 1770 1771 # B N B N cis
10725 2 1770 1771 1772 1775 # B N B N cis
10726 2 1771 1772 1775 1774 # B N B N cis
10727 1 1771 1772 1775 1776 # B N B N trans
10728 1 1772 1775 1774 1773 # B N B N trans
10729 1 1772 1775 1776 1779 # B N B N trans
10730 2 1773 1774 1775 1776 # B N B N cis
10731 1 1774 1773 1778 1777 # B N B N trans
10732 2 1774 1773 1778 1779 # B N B N cis
10733 1 1773 1778 1777 1782 # B N B N trans
10734 1 1773 1778 1779 1780 # B N B N trans
10735 2 1773 1778 1779 1776 # B N B N cis
10736 2 1778 1773 1774 1775 # B N B N cis
10737 2 1774 1775 1776 1779 # B N B N cis
10738 2 1775 1776 1779 1778 # B N B N cis
10739 1 1775 1776 1779 1780 # B N B N trans
10740 1 1776 1779 1778 1777 # B N B N trans
10741 1 1776 1779 1780 1783 # B N B N trans
10742 2 1777 1778 1779 1780 # B N B N cis
10743 1 1778 1777 1782 1781 # B N B N trans
10744 2 1778 1777 1782 1783 # B N B N cis
10745 1 1777 1782 1781 1786 # B N B N trans
10746 1 1777 1782 1783 1784 # B N B N trans
10747 2 1777 1782 1783 1780 # B N B N cis
10748 2 1782 1777 1778 1779 # B N B N cis
10749 2 1778 1779 1780 1783 # B N B N cis
10750 2 1779 1780 1783 1782 # B N B N cis
10751 1 1779 1780 1783 1784 # B N B N trans
10752 1 1780 1783 1782 1781 # B N B N trans
10753 1 1780 1783 1784 1787 # B N B N trans
10754 2 1781 1782 1783 1784 # B N B N cis
10755 1 1782 1781 1786 1785 # B N B N trans
10756 2 1782 1781 1786 1787 # B N B N cis
10757 1 1781 1786 1785 1790 # B N B N trans
10758 1 1781 1786 1787 1788 # B N B N trans
10759 2 1781 1786 1787 1784 # B N B N cis
10760 2 1786 1781 1782 1783 # B N B N cis
10761 2 1782 1783 1784 1787 # B N B N cis
10762 2 1783 1784 1787 1786 # B N B N cis
10763 1 1783 1784 1787 1788 # B N B N trans
10764 1 1784 1787 1786 1785 # B N B N trans
10765 1 1784 1787 1788 1791 # B N B N trans
10766 2 1785 1786 1787 1788 # B N B N cis
10767 1 1786 1785 1790 1789 # B N B N trans
10768 2 1786 1785 1790 1791 # B N B N cis
10769 1 1785 1790 1789 1794 # B N B N trans
10770 1 1785 1790 1791 1792 # B N B N trans
10771 2 1785 1790 1791 1788 # B N B N cis
10772 2 1790 1785 1786 1787 # B N B N cis
10773 2 1786 1787 1788 1791 # B N B N cis
10774 2 1787 1788 1791 1790 # B N B N cis
10775 1 1787 1788 1791 1792 # B N B N trans
10776 1 1788 1791 1790 1789 # B N B N trans
10777 1 1788 1791 1792 1795 # B N B N trans
10778 2 1789 1790 1791 1792 # B N B N cis
10779 1 1790 1789 1794 1793 # B N B N trans
10780 2 1790 1789 1794 1795 # B N B N cis
10781 1 1789 1794 1793 1798 # B N B N trans
10782 1 1789 1794 1795 1796 # B N B N trans
10783 2 1789 1794 1795 1792 # B N B N cis
10784 2 1794 1789 1790 1791 # B N B N cis
10785 2 1790 1791 1792 1795 # B N B N cis
10786 2 1791 1792 1795 1794 # B N B N cis
10787 1 1791 1792 1795 1796 # B N B N trans
10788 1 1792 1795 1794 1793 # B N B N trans
10789 1 1792 1795 1796 1799 # B N B N trans
10790 2 1793 1794 1795 1796 # B N B N cis
10791 1 1794 1793 1798 1797 # B N B N trans
10792 2 1794 1793 1798 1799 # B N B N cis
10793 1 1793 1798 1799 1800 # B N B N trans
10794 2 1793 1798 1799 1796 # B N B N cis
10795 2 1798 1793 1794 1795 # B N B N cis
10796 2 1794 1795 1796 1799 # B N B N cis
10797 2 1795 1796 1799 1798 # B N B N cis
10798 1 1795 1796 1799 1800 # B N B N trans
10799 1 1796 1799 1798 1797 # B N B N trans
10800 2 1797 1798 1799 1800 # B N B N cis
